
     Program PWSCF v.7.5 starts on  4Sep2026 at 22:12:24 

     This program is part of the open-source Quantum ESPRESSO suite
     for quantum simulation of materials; please cite
         "P. Giannozzi et al., J. Phys.:Condens. Matter 21 395502 (2009);
         "P. Giannozzi et al., J. Phys.:Condens. Matter 29 465901 (2017);
         "P. Giannozzi et al., J. Chem. Phys. 152 154105 (2020);
          URL http://www.quantum-espresso.org", 
     in publications or presentations arising from this work. More details at
     http://www.quantum-espresso.org/quote

     Parallel version (MPI & OpenMP), running on       4 processor cores
     Number of MPI processes:                 2
     Threads/MPI process:                     2

     MPI processes distributed on     1 nodes
     6540 MiB available memory on the printing compute node when the environment starts

     Waiting for input...
     Reading input from standard input

     Current dimensions of program PWSCF are:
     Max number of different atomic species (ntypx) = 10
     Max number of k-points (npk) =  40000
     Max angular momentum in pseudopotentials (lmaxx) =  4
     Message from routine setup:
     using ibrav=0 with symmetry is DISCOURAGED, use correct ibrav instead

     R & G space division:  proc/nbgrp/npool/nimage =       2
     Subspace diagonalization in iterative solution of the eigenvalue problem:
     a serial algorithm will be used


     Parallelization info
     --------------------
     sticks:   dense  smooth     PW     G-vecs:    dense   smooth      PW
     Min         324     324     99                 5507     5507     957
     Max         325     325    100                 5510     5510     960
     Sum         649     649    199                11017    11017    1917

     Using Slab Decomposition



     bravais-lattice index     =            0
     lattice parameter (alat)  =       7.2555  a.u.
     unit-cell volume          =     270.0773 (a.u.)^3
     number of atoms/cell      =            2
     number of atomic types    =            1
     number of electrons       =         8.00
     number of Kohn-Sham states=            8
     kinetic-energy cutoff     =      45.0000  Ry
     charge density cutoff     =     180.0000  Ry
     scf convergence threshold =      1.0E-10
     mixing beta               =       0.7000
     number of iterations used =            8  plain     mixing
     energy convergence thresh.=      1.0E-06
     force convergence thresh. =      1.0E-05
     press convergence thresh. =      5.0E-01
     Exchange-correlation= PBE
                           (   1   4   3   4   0   0   0)
     nstep                     =           50


     celldm(1)=   7.255506  celldm(2)=   0.000000  celldm(3)=   0.000000
     celldm(4)=   0.000000  celldm(5)=   0.000000  celldm(6)=   0.000000

     crystal axes: (cart. coord. in units of alat)
               a(1) = (   0.000000   0.707107   0.707107 )  
               a(2) = (   0.707107   0.000000   0.707107 )  
               a(3) = (   0.707107   0.707107   0.000000 )  

     reciprocal axes: (cart. coord. in units 2 pi/alat)
               b(1) = ( -0.707107  0.707107  0.707107 )  
               b(2) = (  0.707107 -0.707107  0.707107 )  
               b(3) = (  0.707107  0.707107 -0.707107 )  


     PseudoPot. # 1 for Si read from file:
     ./Si.upf
     MD5 check sum: 02fab3f35e82123ef5bf1cb05d5b1a5e
     Pseudo is Norm-conserving + core correction, Zval =  4.0
     Generated using ONCVPSP code by D. R. Hamann
     Using radial grid of 1510 points,  6 beta functions with: 
                l(1) =   0
                l(2) =   0
                l(3) =   1
                l(4) =   1
                l(5) =   2
                l(6) =   2

     atomic species   valence    mass     pseudopotential
     Si                4.00    28.08500     Si( 1.00)

     48 Sym. Ops., with inversion, found (24 have fractional translation)



   Cartesian axes

     site n.     atom                  positions (alat units)
         1        Si     tau(   1) = (   0.3535534   1.0606602   1.0606602  )
         2        Si     tau(   2) = (   0.0000000   0.0000000   0.0000000  )

     number of k points=    72  Gaussian smearing, width (Ry)=  0.0100
                       cart. coord. in units 2pi/alat
        k(    1) = (   0.0000000   0.0000000   0.0000000), wk =   0.0011574
        k(    2) = (   0.0589256   0.0589256  -0.0589256), wk =   0.0092593
        k(    3) = (   0.1178511   0.1178511  -0.1178511), wk =   0.0092593
        k(    4) = (   0.1767767   0.1767767  -0.1767767), wk =   0.0092593
        k(    5) = (   0.2357023   0.2357023  -0.2357023), wk =   0.0092593
        k(    6) = (   0.2946278   0.2946278  -0.2946278), wk =   0.0092593
        k(    7) = (  -0.3535534  -0.3535534   0.3535534), wk =   0.0046296
        k(    8) = (   0.1178511   0.0000000   0.0000000), wk =   0.0069444
        k(    9) = (   0.1767767   0.0589256  -0.0589256), wk =   0.0277778
        k(   10) = (   0.2357023   0.1178511  -0.1178511), wk =   0.0277778
        k(   11) = (   0.2946278   0.1767767  -0.1767767), wk =   0.0277778
        k(   12) = (   0.3535534   0.2357023  -0.2357023), wk =   0.0277778
        k(   13) = (  -0.2946278  -0.4124790   0.4124790), wk =   0.0277778
        k(   14) = (  -0.2357023  -0.3535534   0.3535534), wk =   0.0277778
        k(   15) = (  -0.1767767  -0.2946278   0.2946278), wk =   0.0277778
        k(   16) = (  -0.1178511  -0.2357023   0.2357023), wk =   0.0277778
        k(   17) = (  -0.0589256  -0.1767767   0.1767767), wk =   0.0277778
        k(   18) = (  -0.0000000  -0.1178511   0.1178511), wk =   0.0138889
        k(   19) = (   0.2357023   0.0000000   0.0000000), wk =   0.0069444
        k(   20) = (   0.2946278   0.0589256  -0.0589256), wk =   0.0277778
        k(   21) = (   0.3535534   0.1178511  -0.1178511), wk =   0.0277778
        k(   22) = (   0.4124790   0.1767767  -0.1767767), wk =   0.0277778
        k(   23) = (  -0.2357023  -0.4714045   0.4714045), wk =   0.0277778
        k(   24) = (  -0.1767767  -0.4124790   0.4124790), wk =   0.0277778
        k(   25) = (  -0.1178511  -0.3535534   0.3535534), wk =   0.0277778
        k(   26) = (  -0.0589256  -0.2946278   0.2946278), wk =   0.0277778
        k(   27) = (   0.0000000  -0.2357023   0.2357023), wk =   0.0138889
        k(   28) = (   0.3535534   0.0000000   0.0000000), wk =   0.0069444
        k(   29) = (   0.4124790   0.0589256  -0.0589256), wk =   0.0277778
        k(   30) = (   0.4714045   0.1178511  -0.1178511), wk =   0.0277778
        k(   31) = (  -0.1767767  -0.5303301   0.5303301), wk =   0.0277778
        k(   32) = (  -0.1178511  -0.4714045   0.4714045), wk =   0.0277778
        k(   33) = (  -0.0589256  -0.4124790   0.4124790), wk =   0.0277778
        k(   34) = (   0.0000000  -0.3535534   0.3535534), wk =   0.0138889
        k(   35) = (   0.4714045   0.0000000   0.0000000), wk =   0.0069444
        k(   36) = (   0.5303301   0.0589256  -0.0589256), wk =   0.0277778
        k(   37) = (  -0.1178511  -0.5892557   0.5892557), wk =   0.0277778
        k(   38) = (  -0.0589256  -0.5303301   0.5303301), wk =   0.0277778
        k(   39) = (  -0.0000000  -0.4714045   0.4714045), wk =   0.0138889
        k(   40) = (   0.5892557   0.0000000   0.0000000), wk =   0.0069444
        k(   41) = (  -0.0589256  -0.6481812   0.6481812), wk =   0.0277778
        k(   42) = (   0.0000000  -0.5892557   0.5892557), wk =   0.0138889
        k(   43) = (  -0.7071068   0.0000000   0.0000000), wk =   0.0034722
        k(   44) = (   0.2357023   0.1178511  -0.0000000), wk =   0.0277778
        k(   45) = (   0.2946278   0.1767767  -0.0589256), wk =   0.0555556
        k(   46) = (   0.3535534   0.2357023  -0.1178511), wk =   0.0555556
        k(   47) = (  -0.2946278  -0.4124790   0.5303301), wk =   0.0555556
        k(   48) = (  -0.2357023  -0.3535534   0.4714045), wk =   0.0277778
        k(   49) = (   0.3535534   0.1178511   0.0000000), wk =   0.0277778
        k(   50) = (   0.4124790   0.1767767  -0.0589256), wk =   0.0555556
        k(   51) = (  -0.2357023  -0.4714045   0.5892557), wk =   0.0555556
        k(   52) = (  -0.1767767  -0.4124790   0.5303301), wk =   0.0555556
        k(   53) = (  -0.1178511  -0.3535534   0.4714045), wk =   0.0555556
        k(   54) = (  -0.0589256  -0.2946278   0.4124790), wk =   0.0555556
        k(   55) = (   0.0000000  -0.2357023   0.3535534), wk =   0.0277778
        k(   56) = (   0.4714045   0.1178511   0.0000000), wk =   0.0277778
        k(   57) = (  -0.1767767  -0.5303301   0.6481812), wk =   0.0555556
        k(   58) = (  -0.1178511  -0.4714045   0.5892557), wk =   0.0555556
        k(   59) = (  -0.0589256  -0.4124790   0.5303301), wk =   0.0555556
        k(   60) = (  -0.0000000  -0.3535534   0.4714045), wk =   0.0277778
        k(   61) = (  -0.1178511  -0.5892557   0.7071068), wk =   0.0277778
        k(   62) = (  -0.0589256  -0.5303301   0.6481812), wk =   0.0555556
        k(   63) = (  -0.0000000  -0.4714045   0.5892557), wk =   0.0277778
        k(   64) = (  -0.7071068   0.1178511   0.0000000), wk =   0.0138889
        k(   65) = (  -0.2357023  -0.4714045   0.7071068), wk =   0.0277778
        k(   66) = (  -0.1767767  -0.4124790   0.6481812), wk =   0.0555556
        k(   67) = (  -0.1178511  -0.3535534   0.5892557), wk =   0.0277778
        k(   68) = (  -0.1178511  -0.4714045   0.7071068), wk =   0.0277778
        k(   69) = (  -0.0589256  -0.4124790   0.6481812), wk =   0.0555556
        k(   70) = (   0.0000000  -0.3535534   0.5892557), wk =   0.0277778
        k(   71) = (  -0.7071068   0.2357023   0.0000000), wk =   0.0138889
        k(   72) = (  -0.7071068   0.3535534   0.0000000), wk =   0.0069444

     Dense  grid:    11017 G-vectors     FFT dimensions: (  32,  32,  32)

     Estimated max dynamical RAM per process >      12.43 MB

     Estimated total dynamical RAM >      24.86 MB

     Initial potential from superposition of free atoms

     starting charge       7.9988, renormalised to       8.0000
     Starting wfcs are    8 randomized atomic wfcs

     total cpu time spent up to now is        0.7 secs

     per-process dynamical memory:    17.7 Mb

     Self-consistent Calculation

     iteration #  1     ecut=    45.00 Ry     beta= 0.70
     Davidson diagonalization with overlap
     ethr =  1.00E-02,  avg # of iterations =  4.6

     Threshold (ethr) on eigenvalues was too large:
     Diagonalizing with lowered threshold

     Davidson diagonalization with overlap
     ethr =  6.54E-04,  avg # of iterations =  1.8

     total cpu time spent up to now is        7.7 secs

     total energy              =     -16.92245262 Ry
     estimated scf accuracy    <       0.05594546 Ry

     iteration #  2     ecut=    45.00 Ry     beta= 0.70
     Davidson diagonalization with overlap
     ethr =  6.99E-04,  avg # of iterations =  1.1

     total cpu time spent up to now is        9.8 secs

     total energy              =     -16.92473613 Ry
     estimated scf accuracy    <       0.00217145 Ry

     iteration #  3     ecut=    45.00 Ry     beta= 0.70
     Davidson diagonalization with overlap
     ethr =  2.71E-05,  avg # of iterations =  4.5

     total cpu time spent up to now is       14.5 secs

     total energy              =     -16.92484826 Ry
     estimated scf accuracy    <       0.00003898 Ry

     iteration #  4     ecut=    45.00 Ry     beta= 0.70
     Davidson diagonalization with overlap
     ethr =  4.87E-07,  avg # of iterations =  3.9

     total cpu time spent up to now is       19.2 secs

     total energy              =     -16.92485665 Ry
     estimated scf accuracy    <       0.00000016 Ry

     iteration #  5     ecut=    45.00 Ry     beta= 0.70
     Davidson diagonalization with overlap
     ethr =  2.06E-09,  avg # of iterations =  3.7

     total cpu time spent up to now is       24.2 secs

     total energy              =     -16.92485695 Ry
     estimated scf accuracy    <          9.1E-09 Ry

     iteration #  6     ecut=    45.00 Ry     beta= 0.70
     Davidson diagonalization with overlap
     ethr =  1.13E-10,  avg # of iterations =  2.0

     total cpu time spent up to now is       26.7 secs

     total energy              =     -16.92485695 Ry
     estimated scf accuracy    <          1.7E-10 Ry

     iteration #  7     ecut=    45.00 Ry     beta= 0.70
     Davidson diagonalization with overlap
     ethr =  2.10E-12,  avg # of iterations =  3.0

     total cpu time spent up to now is       30.5 secs

     End of self-consistent calculation

          k = 0.0000 0.0000 0.0000 (  1411 PWs)   bands (ev):

    -5.7327   6.2344   6.2344   6.2344   8.7907   8.7907   8.7907   9.5796

          k = 0.0589 0.0589-0.0589 (  1390 PWs)   bands (ev):

    -5.6417   5.3731   6.0901   6.0901   8.8345   9.0026   9.0026  10.2466

          k = 0.1179 0.1179-0.1179 (  1381 PWs)   bands (ev):

    -5.3716   3.8492   5.7826   5.7826   8.5770   9.4393   9.4393  11.6753

          k = 0.1768 0.1768-0.1768 (  1375 PWs)   bands (ev):

    -4.9331   2.3023   5.4726   5.4726   8.2548   9.7355   9.7355  13.1431

          k = 0.2357 0.2357-0.2357 (  1380 PWs)   bands (ev):

    -4.3562   0.8947   5.2315   5.2315   7.9891   9.7378   9.7378  14.1004

          k = 0.2946 0.2946-0.2946 (  1383 PWs)   bands (ev):

    -3.7357  -0.2353   5.0829   5.0829   7.8209   9.6261   9.6261  14.0483

          k =-0.3536-0.3536 0.3536 (  1380 PWs)   bands (ev):

    -3.4017  -0.7408   5.0330   5.0330   7.7637   9.5719   9.5719  13.9665

          k = 0.1179 0.0000 0.0000 (  1391 PWs)   bands (ev):

    -5.6113   5.5382   5.8030   5.8030   8.5174   9.3712   9.3712  10.2217

          k = 0.1768 0.0589-0.0589 (  1380 PWs)   bands (ev):

    -5.4003   4.3028   5.4384   5.6293   8.5407   9.4518   9.9103  11.1255

          k = 0.2357 0.1179-0.1179 (  1372 PWs)   bands (ev):

    -5.0164   2.7999   5.1248   5.3052   8.6676   9.4416  10.2966  11.6342

          k = 0.2946 0.1768-0.1768 (  1380 PWs)   bands (ev):

    -4.4805   1.3629   4.9146   4.9515   8.5230   9.5268  10.3207  12.2054

          k = 0.3536 0.2357-0.2357 (  1387 PWs)   bands (ev):

    -3.8550   0.1323   4.6548   4.8247   8.3570   9.4958  10.1260  13.2535

          k =-0.2946-0.4125 0.4125 (  1379 PWs)   bands (ev):

    -3.3643  -0.6376   4.4496   4.8556   8.2764   9.4983   9.9262  14.1558

          k =-0.2357-0.3536 0.3536 (  1387 PWs)   bands (ev):

    -3.4851  -0.4599   4.3541   4.9989   8.3032   9.6152   9.8149  14.2643

          k =-0.1768-0.2946 0.2946 (  1378 PWs)   bands (ev):

    -4.0669   0.5126   4.3814   5.2389   8.4361   9.7820   9.8245  13.7190

          k =-0.1179-0.2357 0.2357 (  1369 PWs)   bands (ev):

    -4.6748   1.8275   4.5413   5.5495   8.6618   9.6996   9.9765  12.7497

          k =-0.0589-0.1768 0.1768 (  1375 PWs)   bands (ev):

    -5.1635   3.2869   4.8457   5.8797   8.9440   9.3985   9.7623  11.9674

          k =-0.0000-0.1179 0.1179 (  1391 PWs)   bands (ev):

    -5.4908   4.6412   5.3687   6.1159   9.0404   9.1575   9.1993  11.0469

          k = 0.2357 0.0000 0.0000 (  1375 PWs)   bands (ev):

    -5.2487   4.1916   5.0389   5.0389   7.9344  10.5282  10.5754  10.5754

          k = 0.2946 0.0589-0.0589 (  1366 PWs)   bands (ev):

    -4.9216   3.1038   4.6911   4.7041   7.9550  10.1269  10.9149  11.1388

          k = 0.3536 0.1179-0.1179 (  1370 PWs)   bands (ev):

    -4.4335   1.7926   4.2381   4.4852   8.1961  10.2950  10.7588  11.3069

          k = 0.4125 0.1768-0.1768 (  1378 PWs)   bands (ev):

    -3.8257   0.5575   3.7985   4.4011   8.2417  10.4883  11.1272  11.2857

          k =-0.2357-0.4714 0.4714 (  1384 PWs)   bands (ev):

    -3.2423  -0.3769   3.4536   4.4549   8.2729  10.3472  10.8546  12.6545

          k =-0.1768-0.4125 0.4125 (  1383 PWs)   bands (ev):

    -3.1279  -0.5367   3.2396   4.6390   8.4172  10.3006  10.6277  14.2097

          k =-0.1179-0.3536 0.3536 (  1381 PWs)   bands (ev):

    -3.6272   0.2223   3.1830   4.9344   8.6814  10.3560  10.4606  13.5239

          k =-0.0589-0.2946 0.2946 (  1375 PWs)   bands (ev):

    -4.2515   1.3695   3.3277   5.3030   9.0120  10.2305  10.4123  12.3629

          k = 0.0000-0.2357 0.2357 (  1370 PWs)   bands (ev):

    -4.7834   2.5119   3.8185   5.6678   9.2665   9.7863  10.0822  11.8949

          k = 0.3536 0.0000 0.0000 (  1355 PWs)   bands (ev):

    -4.6509   2.7117   4.3413   4.3413   7.3609   9.3664  11.9877  11.9877

          k = 0.4125 0.0589-0.0589 (  1370 PWs)   bands (ev):

    -4.2144   1.8012   3.8756   4.0946   7.4453   9.0129  12.2761  12.4703

          k = 0.4714 0.1179-0.1179 (  1375 PWs)   bands (ev):

    -3.6391   0.7720   3.2432   3.9873   7.6640   9.4847  12.1421  12.4289

          k =-0.1768-0.5303 0.5303 (  1374 PWs)   bands (ev):

    -3.0151  -0.1543   2.6963   4.0260   7.7522  10.6837  11.9736  12.1519

          k =-0.1179-0.4714 0.4714 (  1372 PWs)   bands (ev):

    -2.6913  -0.5689   2.3332   4.2061   7.9315  11.6935  11.8542  12.3965

          k =-0.0589-0.4125 0.4125 (  1370 PWs)   bands (ev):

    -3.0672  -0.0749   2.2138   4.5112   8.2554  11.5522  11.6747  13.4134

          k = 0.0000-0.3536 0.3536 (  1368 PWs)   bands (ev):

    -3.6892   0.7482   2.4780   4.9038   8.6802  11.0175  11.3703  12.3732

          k = 0.4714 0.0000 0.0000 (  1379 PWs)   bands (ev):

    -3.8287   1.2174   3.8132   3.8132   6.9586   8.2258  13.4942  13.4942

          k = 0.5303 0.0589-0.0589 (  1375 PWs)   bands (ev):

    -3.2940   0.4313   3.3271   3.6705   7.1214   8.0955  13.8187  13.8645

          k =-0.1179-0.5893 0.5893 (  1372 PWs)   bands (ev):

    -2.6650  -0.3373   2.5988   3.6766   7.2957   8.9510  13.6827  13.7109

          k =-0.0589-0.5303 0.5303 (  1377 PWs)   bands (ev):

    -2.1960  -0.8285   2.0199   3.8305   7.4726  10.3987  13.3298  13.5439

          k =-0.0000-0.4714 0.4714 (  1382 PWs)   bands (ev):

    -2.4690  -0.5423   1.8179   4.1192   7.7994  12.0404  12.7047  13.3079

          k = 0.5893 0.0000 0.0000 (  1367 PWs)   bands (ev):

    -2.7993  -0.2339   3.4879   3.4879   6.8039   7.4094  15.0554  15.0554

          k =-0.0589-0.6482 0.6482 (  1369 PWs)   bands (ev):

    -2.1857  -0.9220   3.0561   3.4542   7.0055   7.5752  15.3004  15.4006

          k = 0.0000-0.5893 0.5893 (  1366 PWs)   bands (ev):

    -1.7299  -1.3261   2.3851   3.5714   7.1655   8.7767  14.7503  15.2792

          k =-0.7071 0.0000 0.0000 (  1362 PWs)   bands (ev):

    -1.5888  -1.5888   3.3783   3.3783   6.9427   6.9427  16.3267  16.3267

          k = 0.2357 0.1179-0.0000 (  1368 PWs)   bands (ev):

    -5.1316   3.5026   4.5975   5.5262   8.5681   9.7734  10.3872  11.1427

          k = 0.2946 0.1768-0.0589 (  1367 PWs)   bands (ev):

    -4.6953   2.2606   4.0648   5.2506   8.8498   9.7419  10.7946  11.1316

          k = 0.3536 0.2357-0.1179 (  1376 PWs)   bands (ev):

    -4.1201   0.9584   3.7951   4.9227   8.8906   9.6219  10.8522  11.7809

          k =-0.2946-0.4125 0.5303 (  1383 PWs)   bands (ev):

    -3.4984  -0.1318   3.6678   4.6758   8.8341   9.4344  10.7712  12.9958

          k =-0.2357-0.3536 0.4714 (  1380 PWs)   bands (ev):

    -3.1600  -0.6302   3.6323   4.5840   8.8124   9.3498  10.7260  14.3045

          k = 0.3536 0.1179 0.0000 (  1371 PWs)   bands (ev):

    -4.5404   2.3087   3.9014   4.6046   8.0215   9.7612  11.0498  11.8682

          k = 0.4125 0.1768-0.0589 (  1378 PWs)   bands (ev):

    -4.0079   1.2578   3.3638   4.3157   8.3550   9.9814  10.7928  12.2547

          k =-0.2357-0.4714 0.5893 (  1382 PWs)   bands (ev):

    -3.3824   0.2029   3.0071   4.1048   8.4765  10.4439  11.0428  12.2366

          k =-0.1768-0.4125 0.5303 (  1385 PWs)   bands (ev):

    -2.8855  -0.5038   2.7612   4.0866   8.6044  10.1694  12.1291  12.5121

          k =-0.1179-0.3536 0.4714 (  1374 PWs)   bands (ev):

    -3.0213  -0.3165   2.6428   4.2595   8.8537   9.9801  12.0445  12.9007

          k =-0.0589-0.2946 0.4125 (  1373 PWs)   bands (ev):

    -3.6115   0.5609   2.7169   4.5768   9.2119   9.8381  11.5241  12.0020

          k = 0.0000-0.2357 0.3536 (  1377 PWs)   bands (ev):

    -4.2141   1.5406   3.1321   4.9592   9.4441   9.5893  10.9076  11.5697

          k = 0.4714 0.1179 0.0000 (  1379 PWs)   bands (ev):

    -3.7301   1.0421   3.3914   3.8194   7.6244   8.7128  12.2944  13.4432

          k =-0.1768-0.5303 0.6482 (  1375 PWs)   bands (ev):

    -3.1244   0.2064   2.8033   3.6022   7.9593   9.2429  11.9940  13.8129

          k =-0.1179-0.4714 0.5893 (  1375 PWs)   bands (ev):

    -2.5350  -0.5086   2.2820   3.6102   8.1133  10.5380  11.6984  13.7450

          k =-0.0589-0.4125 0.5303 (  1380 PWs)   bands (ev):

    -2.4640  -0.5796   1.9932   3.8089   8.3700  11.2925  12.2862  12.9652

          k =-0.0000-0.3536 0.4714 (  1363 PWs)   bands (ev):

    -3.0017   0.0110   2.0799   4.1544   8.7615  10.8777  11.7377  13.0755

          k =-0.1179-0.5893 0.7071 (  1362 PWs)   bands (ev):

    -2.7219  -0.2705   3.1074   3.3040   7.4542   7.9676  13.6716  15.0506

          k =-0.0589-0.5303 0.6482 (  1372 PWs)   bands (ev):

    -2.0929  -0.9136   2.4786   3.2601   7.7467   8.8744  13.3517  14.8318

          k =-0.0000-0.4714 0.5893 (  1378 PWs)   bands (ev):

    -1.9381  -1.0270   1.9803   3.4574   7.9842  10.4055  12.8906  13.2840

          k =-0.7071 0.1179 0.0000 (  1372 PWs)   bands (ev):

    -1.5507  -1.5507   3.0720   3.0720   7.5568   7.5568  15.1415  15.1415

          k =-0.2357-0.4714 0.7071 (  1370 PWs)   bands (ev):

    -3.4436   0.5844   2.6612   3.9363   9.0856   9.9508  10.4643  13.2982

          k =-0.1768-0.4125 0.6482 (  1375 PWs)   bands (ev):

    -2.8195  -0.1857   2.3140   3.5990   9.4609  10.0001  10.9872  13.7277

          k =-0.1179-0.3536 0.5893 (  1380 PWs)   bands (ev):

    -2.4590  -0.6151   2.2210   3.4695   9.5912   9.7883  12.3370  12.7490

          k =-0.1179-0.4714 0.7071 (  1370 PWs)   bands (ev):

    -2.5080  -0.4147   2.4624   3.0813   8.9155   9.3203  11.6152  14.5444

          k =-0.0589-0.4125 0.6482 (  1380 PWs)   bands (ev):

    -1.9848  -0.9213   2.1468   2.9270   9.2574  10.5230  11.3397  12.7278

          k = 0.0000-0.3536 0.5893 (  1378 PWs)   bands (ev):

    -2.2164  -0.6914   2.0219   3.1522   9.5594  10.7101  11.2314  12.4756

          k =-0.7071 0.2357 0.0000 (  1384 PWs)   bands (ev):

    -1.4690  -1.4690   2.5860   2.5860   8.9826   8.9826  12.9956  12.9956

          k =-0.7071 0.3536 0.0000 (  1384 PWs)   bands (ev):

    -1.4250  -1.4250   2.3782   2.3782  10.5075  10.5075  11.2307  11.2307

     the Fermi energy is     6.5096 ev

!    total energy              =     -16.92485695 Ry
     estimated scf accuracy    <          4.6E-11 Ry
     smearing contrib. (-TS)   =      -0.00000036 Ry
     internal energy E=F+TS    =     -16.92485659 Ry

     The total energy is F=E-TS. E is the sum of the following terms:
     one-electron contribution =       4.96416504 Ry
     hartree contribution      =       1.09483145 Ry
     xc contribution           =      -6.18429056 Ry
     ewald contribution        =     -16.79956252 Ry

     convergence has been achieved in   7 iterations

     Forces acting on atoms (cartesian axes, Ry/au):

     atom    1 type  1   force =     0.00000000   -0.00000000    0.00000000
     atom    2 type  1   force =    -0.00000000    0.00000000    0.00000000

     Total force =     0.000000     Total SCF correction =     0.000000


     Computing stress (Cartesian axis) and pressure

          total   stress  (Ry/bohr**3)                   (kbar)     P=       19.93
   0.00013548  -0.00000000  -0.00000000           19.93       -0.00       -0.00
  -0.00000000   0.00013548   0.00000000           -0.00       19.93        0.00
  -0.00000000  -0.00000000   0.00013548           -0.00       -0.00       19.93


     BFGS Geometry Optimization
     Energy error            =      3.7E-04 Ry
     Gradient error          =      2.3E-31 Ry/Bohr
     Cell gradient error     =      2.0E+01 kbar

     number of scf cycles    =   1
     number of bfgs steps    =   0

     enthalpy           new  =     -16.9248569488 Ry

     new trust radius        =       0.0111325680 bohr
     new conv_thr            =            1.0E-10 Ry

     new unit-cell volume =    272.83092 a.u.^3 (    40.42937 Ang^3 )
     density =      2.30705 g/cm^3

CELL_PARAMETERS (angstrom)
  -0.000000000   2.724095496   2.724095496
   2.724095496  -0.000000000   2.724095496
   2.724095496   2.724095496  -0.000000000

ATOMIC_POSITIONS (angstrom)
Si               1.3620477478        4.0861432435        4.0861432435
Si              -0.0000000000        0.0000000000        0.0000000000



     Writing config-only to output data dir ./pwscf.save/ :
     XML data file
     NEW-OLD atomic charge density approx. for the potential
     New effective cutoffs (rho, wfc):  178.77   44.69

     total cpu time spent up to now is       32.5 secs

     per-process dynamical memory:    20.7 Mb

     Self-consistent Calculation

     iteration #  1     ecut=    45.00 Ry     beta= 0.70
     Davidson diagonalization with overlap
     ethr =  1.00E-06,  avg # of iterations =  3.3

     Threshold (ethr) on eigenvalues was too large:
     Diagonalizing with lowered threshold

     Davidson diagonalization with overlap
     ethr =  3.95E-08,  avg # of iterations =  2.5

     total cpu time spent up to now is       42.4 secs

     total energy              =     -16.92513893 Ry
     estimated scf accuracy    <       0.00000295 Ry

     iteration #  2     ecut=    45.00 Ry     beta= 0.70
     Davidson diagonalization with overlap
     ethr =  3.69E-08,  avg # of iterations =  1.1

     total cpu time spent up to now is       45.3 secs

     total energy              =     -16.92513923 Ry
     estimated scf accuracy    <       0.00000006 Ry

     iteration #  3     ecut=    45.00 Ry     beta= 0.70
     Davidson diagonalization with overlap
     ethr =  7.87E-10,  avg # of iterations =  2.3

     total cpu time spent up to now is       50.0 secs

     total energy              =     -16.92513926 Ry
     estimated scf accuracy    <          3.2E-09 Ry

     iteration #  4     ecut=    45.00 Ry     beta= 0.70
     Davidson diagonalization with overlap
     ethr =  3.97E-11,  avg # of iterations =  2.9

     total cpu time spent up to now is       54.6 secs

     End of self-consistent calculation

          k = 0.0000 0.0000 0.0000 (  1411 PWs)   bands (ev):

    -5.7690   6.1285   6.1285   6.1285   8.6808   8.6808   8.6808   9.3583

          k = 0.0587 0.0587-0.0587 (  1390 PWs)   bands (ev):

    -5.6788   5.2674   5.9859   5.9859   8.7069   8.8904   8.8904  10.0445

          k = 0.1175 0.1175-0.1175 (  1381 PWs)   bands (ev):

    -5.4110   3.7512   5.6811   5.6811   8.4383   9.3237   9.3237  11.4823

          k = 0.1762 0.1762-0.1762 (  1375 PWs)   bands (ev):

    -4.9766   2.2151   5.3734   5.3734   8.1141   9.6214   9.6214  12.9540

          k = 0.2349 0.2349-0.2349 (  1380 PWs)   bands (ev):

    -4.4054   0.8190   5.1338   5.1338   7.8479   9.6298   9.6298  13.9528

          k = 0.2936 0.2936-0.2936 (  1383 PWs)   bands (ev):

    -3.7924  -0.3000   4.9859   4.9859   7.6795   9.5229   9.5229  13.9259

          k =-0.3524-0.3524 0.3524 (  1380 PWs)   bands (ev):

    -3.4635  -0.7991   4.9363   4.9363   7.6223   9.4703   9.4703  13.8472

          k = 0.1175 0.0000 0.0000 (  1391 PWs)   bands (ev):

    -5.6486   5.4244   5.7026   5.7026   8.4099   9.2547   9.2547  10.0103

          k = 0.1762 0.0587-0.0587 (  1380 PWs)   bands (ev):

    -5.4395   4.1985   5.3415   5.5262   8.4315   9.3137   9.7891  10.9517

          k = 0.2349 0.1175-0.1175 (  1372 PWs)   bands (ev):

    -5.0590   2.7069   5.0303   5.2040   8.5449   9.3111  10.1751  11.5081

          k = 0.2936 0.1762-0.1762 (  1380 PWs)   bands (ev):

    -4.5283   1.2817   4.8212   4.8528   8.3904   9.4112  10.2051  12.0828

          k = 0.3524 0.2349-0.2349 (  1387 PWs)   bands (ev):

    -3.9097   0.0626   4.5585   4.7313   8.2214   9.3886  10.0167  13.1216

          k =-0.2936-0.4111 0.4111 (  1379 PWs)   bands (ev):

    -3.4259  -0.6982   4.3553   4.7613   8.1390   9.3945   9.8207  14.0234

          k =-0.2349-0.3524 0.3524 (  1387 PWs)   bands (ev):

    -3.5448  -0.5229   4.2615   4.9028   8.1642   9.5113   9.7102  14.1317

          k =-0.1762-0.2936 0.2936 (  1378 PWs)   bands (ev):

    -4.1191   0.4392   4.2897   5.1405   8.2958   9.6748   9.7170  13.5722

          k =-0.1175-0.2349 0.2349 (  1369 PWs)   bands (ev):

    -4.7206   1.7423   4.4497   5.4484   8.5210   9.5874   9.8620  12.5983

          k =-0.0587-0.1762 0.1762 (  1375 PWs)   bands (ev):

    -5.2048   3.1898   4.7534   5.7758   8.8042   9.2845   9.6411  11.7995

          k =-0.0000-0.1175 0.1175 (  1391 PWs)   bands (ev):

    -5.5292   4.5349   5.2734   6.0102   8.9286   9.0176   9.0830  10.8582

          k = 0.2349 0.0000 0.0000 (  1375 PWs)   bands (ev):

    -5.2891   4.0772   4.9461   4.9461   7.8324  10.3783  10.4478  10.4478

          k = 0.2936 0.0587-0.0587 (  1366 PWs)   bands (ev):

    -4.9649   2.9999   4.5979   4.6141   7.8525   9.9956  10.7921  11.0080

          k = 0.3524 0.1175-0.1175 (  1370 PWs)   bands (ev):

    -4.4814   1.7018   4.1469   4.3966   8.0916  10.1598  10.6414  11.1804

          k = 0.4111 0.1762-0.1762 (  1378 PWs)   bands (ev):

    -3.8799   0.4791   3.7103   4.3127   8.1364  10.3493  11.0077  11.1660

          k =-0.2349-0.4698 0.4698 (  1384 PWs)   bands (ev):

    -3.3040  -0.4445   3.3686   4.3654   8.1656  10.2142  10.7400  12.5207

          k =-0.1762-0.4111 0.4111 (  1383 PWs)   bands (ev):

    -3.1915  -0.6020   3.1573   4.5474   8.3052  10.1711  10.5152  14.0639

          k =-0.1175-0.3524 0.3524 (  1381 PWs)   bands (ev):

    -3.6839   0.1477   3.1030   4.8396   8.5623  10.2301  10.3467  13.3692

          k =-0.0587-0.2936 0.2936 (  1375 PWs)   bands (ev):

    -4.3014   1.2827   3.2493   5.2044   8.8842  10.1126  10.2887  12.2128

          k = 0.0000-0.2349 0.2349 (  1370 PWs)   bands (ev):

    -4.8282   2.4147   3.7385   5.5655   9.1294   9.6691   9.9585  11.7476

          k = 0.3524 0.0000 0.0000 (  1355 PWs)   bands (ev):

    -4.6966   2.6041   4.2546   4.2546   7.2647   9.2616  11.8488  11.8488

          k = 0.4111 0.0587-0.0587 (  1370 PWs)   bands (ev):

    -4.2640   1.7014   3.7929   4.0098   7.3487   8.9128  12.1292  12.3309

          k = 0.4698 0.1175-0.1175 (  1375 PWs)   bands (ev):

    -3.6943   0.6827   3.1661   3.9031   7.5681   9.3785  11.9906  12.2966

          k =-0.1762-0.5285 0.5285 (  1374 PWs)   bands (ev):

    -3.0775  -0.2328   2.6239   3.9410   7.6565  10.5699  11.8187  12.0253

          k =-0.1175-0.4698 0.4698 (  1372 PWs)   bands (ev):

    -2.7588  -0.6412   2.2645   4.1191   7.8330  11.5639  11.7301  12.2482

          k =-0.0587-0.4111 0.4111 (  1370 PWs)   bands (ev):

    -3.1297  -0.1538   2.1480   4.4210   8.1516  11.4263  11.5383  13.2568

          k = 0.0000-0.3524 0.3524 (  1368 PWs)   bands (ev):

    -3.7447   0.6609   2.4112   4.8096   8.5678  10.8910  11.2406  12.2144

          k = 0.4698 0.0000 0.0000 (  1379 PWs)   bands (ev):

    -3.8817   1.1203   3.7308   3.7308   6.8673   8.1340  13.3438  13.3438

          k = 0.5285 0.0587-0.0587 (  1375 PWs)   bands (ev):

    -3.3519   0.3406   3.2508   3.5891   7.0299   8.0025  13.6600  13.7165

          k =-0.1175-0.5873 0.5873 (  1372 PWs)   bands (ev):

    -2.7294  -0.4213   2.5317   3.5950   7.2054   8.8473  13.5413  13.5486

          k =-0.0587-0.5285 0.5285 (  1377 PWs)   bands (ev):

    -2.2673  -0.9063   1.9599   3.7472   7.3805  10.2846  13.1900  13.3820

          k =-0.0000-0.4698 0.4698 (  1382 PWs)   bands (ev):

    -2.5380  -0.6218   1.7602   4.0331   7.7030  11.9235  12.5642  13.1494

          k = 0.5873 0.0000 0.0000 (  1367 PWs)   bands (ev):

    -2.8615  -0.3189   3.4081   3.4081   6.7161   7.3225  14.8918  14.8918

          k =-0.0587-0.6460 0.6460 (  1369 PWs)   bands (ev):

    -2.2537  -1.0012   2.9825   3.3746   6.9180   7.4832  15.1378  15.2279

          k = 0.0000-0.5873 0.5873 (  1366 PWs)   bands (ev):

    -1.8044  -1.4007   2.3211   3.4906   7.0770   8.6734  14.5889  15.0915

          k =-0.7047 0.0000 0.0000 (  1362 PWs)   bands (ev):

    -1.6618  -1.6618   3.2993   3.2993   6.8566   6.8566  16.1344  16.1344

          k = 0.2349 0.1175 0.0000 (  1368 PWs)   bands (ev):

    -5.1731   3.3988   4.5097   5.4247   8.4598   9.6274  10.2616  11.0175

          k = 0.2936 0.1762-0.0587 (  1367 PWs)   bands (ev):

    -4.7408   2.1673   3.9794   5.1520   8.7357   9.6031  10.6686  11.0190

          k = 0.3524 0.2349-0.1175 (  1376 PWs)   bands (ev):

    -4.1713   0.8776   3.7092   4.8279   8.7670   9.5042  10.7277  11.6603

          k =-0.2936-0.4111 0.5285 (  1383 PWs)   bands (ev):

    -3.5569  -0.2011   3.5809   4.5841   8.7040   9.3305  10.6499  12.8628

          k =-0.2349-0.3524 0.4698 (  1380 PWs)   bands (ev):

    -3.2237  -0.6929   3.5449   4.4936   8.6792   9.2512  10.6056  14.1572

          k = 0.3524 0.1175 0.0000 (  1371 PWs)   bands (ev):

    -4.5872   2.2077   3.8198   4.5134   7.9186   9.6482  10.9176  11.7308

          k = 0.4111 0.1762-0.0587 (  1378 PWs)   bands (ev):

    -4.0598   1.1665   3.2854   4.2285   8.2505   9.8698  10.6602  12.1165

          k =-0.2349-0.4698 0.5873 (  1382 PWs)   bands (ev):

    -3.4411   0.1234   2.9294   4.0205   8.3720  10.3226  10.9150  12.1001

          k =-0.1762-0.4111 0.5285 (  1385 PWs)   bands (ev):

    -2.9510  -0.5739   2.6850   4.0026   8.4979  10.0490  11.9939  12.3766

          k =-0.1175-0.3524 0.4698 (  1374 PWs)   bands (ev):

    -3.0849  -0.3891   2.5688   4.1732   8.7426   9.8630  11.9064  12.7698

          k =-0.0587-0.2936 0.4111 (  1373 PWs)   bands (ev):

    -3.6678   0.4774   2.6449   4.4867   9.0932   9.7236  11.3930  11.8726

          k = 0.0000-0.2349 0.3524 (  1377 PWs)   bands (ev):

    -4.2642   1.4477   3.0586   4.8645   9.3294   9.4598  10.7921  11.4362

          k = 0.4698 0.1175 0.0000 (  1379 PWs)   bands (ev):

    -3.7842   0.9470   3.3143   3.7380   7.5264   8.6155  12.1510  13.2937

          k =-0.1762-0.5285 0.6460 (  1375 PWs)   bands (ev):

    -3.1846   0.1186   2.7326   3.5236   7.8609   9.1384  11.8539  13.6608

          k =-0.1175-0.4698 0.5873 (  1375 PWs)   bands (ev):

    -2.6024  -0.5881   2.2169   3.5313   8.0145  10.4253  11.5597  13.5905

          k =-0.0587-0.4111 0.5285 (  1380 PWs)   bands (ev):

    -2.5332  -0.6575   1.9318   3.7277   8.2680  11.1702  12.1534  12.8186

          k = 0.0000-0.3524 0.4698 (  1363 PWs)   bands (ev):

    -3.0644  -0.0728   2.0181   4.0693   8.6541  10.7545  11.6067  12.9377

          k =-0.1175-0.5873 0.7047 (  1362 PWs)   bands (ev):

    -2.7852  -0.3557   3.0330   3.2282   7.3596   7.8744  13.5206  14.8858

          k =-0.0587-0.5285 0.6460 (  1372 PWs)   bands (ev):

    -2.1630  -0.9935   2.4133   3.1846   7.6518   8.7706  13.2044  14.6669

          k =-0.0000-0.4698 0.5873 (  1378 PWs)   bands (ev):

    -2.0121  -1.1044   1.9216   3.3798   7.8869  10.2918  12.7462  13.1387

          k =-0.7047 0.1175 0.0000 (  1372 PWs)   bands (ev):

    -1.6247  -1.6247   2.9982   2.9982   7.4640   7.4640  14.9775  14.9775

          k =-0.2349-0.4698 0.7047 (  1370 PWs)   bands (ev):

    -3.5011   0.4947   2.5925   3.8544   8.9753   9.8475  10.3294  13.1518

          k =-0.1762-0.4111 0.6460 (  1375 PWs)   bands (ev):

    -2.8839  -0.2679   2.2479   3.5216   9.3518   9.8836  10.8593  13.5801

          k =-0.1175-0.3524 0.5873 (  1380 PWs)   bands (ev):

    -2.5283  -0.6914   2.1549   3.3938   9.4900   9.6624  12.2098  12.6030

          k =-0.1175-0.4698 0.7047 (  1370 PWs)   bands (ev):

    -2.5745  -0.4992   2.3965   3.0102   8.8085   9.2160  11.4790  14.3868

          k =-0.0587-0.4111 0.6460 (  1380 PWs)   bands (ev):

    -2.0577  -1.0012   2.0856   2.8575   9.1504  10.4128  11.2021  12.5867

          k = 0.0000-0.3524 0.5873 (  1378 PWs)   bands (ev):

    -2.2872  -0.7728   1.9621   3.0800   9.4508  10.5929  11.1006  12.3360

          k =-0.7047 0.2349 0.0000 (  1384 PWs)   bands (ev):

    -1.5452  -1.5452   2.5199   2.5199   8.8777   8.8777  12.8522  12.8522

          k =-0.7047 0.3524 0.0000 (  1384 PWs)   bands (ev):

    -1.5025  -1.5025   2.3153   2.3153  10.4023  10.4023  11.0891  11.0891

     the Fermi energy is     6.4130 ev

!    total energy              =     -16.92513926 Ry
     estimated scf accuracy    <          6.9E-11 Ry
     smearing contrib. (-TS)   =      -0.00000027 Ry
     internal energy E=F+TS    =     -16.92513899 Ry

     The total energy is F=E-TS. E is the sum of the following terms:
     one-electron contribution =       4.88700630 Ry
     hartree contribution      =       1.10370595 Ry
     xc contribution           =      -6.17299755 Ry
     ewald contribution        =     -16.74285368 Ry

     convergence has been achieved in   4 iterations

     Forces acting on atoms (cartesian axes, Ry/au):

     atom    1 type  1   force =    -0.00000000   -0.00000000    0.00000000
     atom    2 type  1   force =     0.00000000    0.00000000   -0.00000000

     Total force =     0.000000     Total SCF correction =     0.000000


     Computing stress (Cartesian axis) and pressure

          total   stress  (Ry/bohr**3)                   (kbar)     P=       10.32
   0.00007013  -0.00000000  -0.00000000           10.32       -0.00       -0.00
  -0.00000000   0.00007013  -0.00000000           -0.00       10.32       -0.00
  -0.00000000  -0.00000000   0.00007013           -0.00       -0.00       10.32

     Energy error            =      2.8E-04 Ry
     Gradient error          =      8.1E-32 Ry/Bohr
     Cell gradient error     =      1.0E+01 kbar

     number of scf cycles    =   2
     number of bfgs steps    =   1

     enthalpy           old  =     -16.9248569488 Ry
     enthalpy           new  =     -16.9251392582 Ry

     CASE: enthalpy          _new < enthalpy          _old

     new trust radius        =       0.0121376897 bohr
     new conv_thr            =            1.0E-12 Ry

     new unit-cell volume =    275.84926 a.u.^3 (    40.87664 Ang^3 )
     density =      2.28180 g/cm^3

CELL_PARAMETERS (angstrom)
  -0.000000000   2.734104286   2.734104286
   2.734104286  -0.000000000   2.734104286
   2.734104286   2.734104286  -0.000000000

ATOMIC_POSITIONS (angstrom)
Si               1.3670521428        4.1011564284        4.1011564284
Si              -0.0000000000        0.0000000000       -0.0000000000



     Writing config-only to output data dir ./pwscf.save/ :
     XML data file
     NEW-OLD atomic charge density approx. for the potential
     New effective cutoffs (rho, wfc):  177.47   44.37

     total cpu time spent up to now is       56.6 secs

     per-process dynamical memory:    20.7 Mb

     Self-consistent Calculation

     iteration #  1     ecut=    45.00 Ry     beta= 0.70
     Davidson diagonalization with overlap
     ethr =  1.00E-06,  avg # of iterations =  3.5

     Threshold (ethr) on eigenvalues was too large:
     Diagonalizing with lowered threshold

     Davidson diagonalization with overlap
     ethr =  4.71E-08,  avg # of iterations =  2.4

     total cpu time spent up to now is       65.8 secs

     total energy              =     -16.92524741 Ry
     estimated scf accuracy    <       0.00000346 Ry

     iteration #  2     ecut=    45.00 Ry     beta= 0.70
     Davidson diagonalization with overlap
     ethr =  4.32E-08,  avg # of iterations =  1.1

     total cpu time spent up to now is       68.7 secs

     total energy              =     -16.92524776 Ry
     estimated scf accuracy    <       0.00000007 Ry

     iteration #  3     ecut=    45.00 Ry     beta= 0.70
     Davidson diagonalization with overlap
     ethr =  9.11E-10,  avg # of iterations =  2.3

     total cpu time spent up to now is       73.3 secs

     total energy              =     -16.92524779 Ry
     estimated scf accuracy    <          3.6E-09 Ry

     iteration #  4     ecut=    45.00 Ry     beta= 0.70
     Davidson diagonalization with overlap
     ethr =  4.47E-11,  avg # of iterations =  2.9

     total cpu time spent up to now is       79.0 secs

     total energy              =     -16.92524779 Ry
     estimated scf accuracy    <          6.6E-11 Ry

     iteration #  5     ecut=    45.00 Ry     beta= 0.70
     Davidson diagonalization with overlap
     ethr =  8.20E-13,  avg # of iterations =  3.5

     total cpu time spent up to now is       84.3 secs

     total energy              =     -16.92524779 Ry
     estimated scf accuracy    <          8.4E-12 Ry

     iteration #  6     ecut=    45.00 Ry     beta= 0.70
     Davidson diagonalization with overlap
     ethr =  1.05E-13,  avg # of iterations =  2.0

     total cpu time spent up to now is       88.5 secs

     End of self-consistent calculation

          k = 0.0000 0.0000 0.0000 (  1411 PWs)   bands (ev):

    -5.8080   6.0148   6.0148   6.0148   8.5625   8.5625   8.5625   9.1201

          k = 0.0585 0.0585-0.0585 (  1390 PWs)   bands (ev):

    -5.7186   5.1534   5.8738   5.8738   8.5676   8.7697   8.7697   9.8294

          k = 0.1170 0.1170-0.1170 (  1381 PWs)   bands (ev):

    -5.4534   3.6454   5.5721   5.5721   8.2882   9.1993   9.1993  11.2758

          k = 0.1755 0.1755-0.1755 (  1375 PWs)   bands (ev):

    -5.0233   2.1211   5.2668   5.2668   7.9621   9.4984   9.4984  12.7506

          k = 0.2340 0.2340-0.2340 (  1380 PWs)   bands (ev):

    -4.4583   0.7373   5.0287   5.0287   7.6956   9.5133   9.5133  13.7913

          k = 0.2926 0.2926-0.2926 (  1383 PWs)   bands (ev):

    -3.8532  -0.3698   4.8817   4.8817   7.5271   9.4116   9.4116  13.7938

          k =-0.3511-0.3511 0.3511 (  1380 PWs)   bands (ev):

    -3.5299  -0.8621   4.8323   4.8323   7.4699   9.3608   9.3608  13.7185

          k = 0.1170 0.0000 0.0000 (  1391 PWs)   bands (ev):

    -5.6887   5.3017   5.5947   5.5947   8.2943   9.1293   9.1293   9.7830

          k = 0.1755 0.0585-0.0585 (  1380 PWs)   bands (ev):

    -5.4816   4.0858   5.2374   5.4156   8.3138   9.1638   9.6586  10.7642

          k = 0.2340 0.1170-0.1170 (  1372 PWs)   bands (ev):

    -5.1049   2.6065   4.9287   5.0954   8.4119   9.1710  10.0443  11.3706

          k = 0.2926 0.1755-0.1755 (  1380 PWs)   bands (ev):

    -4.5797   1.1941   4.7209   4.7468   8.2469   9.2870  10.0806  11.9502

          k = 0.3511 0.2340-0.2340 (  1387 PWs)   bands (ev):

    -3.9685  -0.0126   4.4550   4.6310   8.0749   9.2734   9.8990  12.9792

          k =-0.2926-0.4096 0.4096 (  1379 PWs)   bands (ev):

    -3.4922  -0.7637   4.2541   4.6599   7.9908   9.2829   9.7071  13.8805

          k =-0.2340-0.3511 0.3511 (  1387 PWs)   bands (ev):

    -3.6091  -0.5908   4.1619   4.7996   8.0143   9.3994   9.5974  13.9884

          k =-0.1755-0.2926 0.2926 (  1378 PWs)   bands (ev):

    -4.1753   0.3599   4.1912   5.0348   8.1446   9.5592   9.6013  13.4133

          k =-0.1170-0.2340 0.2340 (  1369 PWs)   bands (ev):

    -4.7700   1.6504   4.3514   5.3398   8.3691   9.4664   9.7386  12.4344

          k =-0.0585-0.1755 0.1755 (  1375 PWs)   bands (ev):

    -5.2492   3.0850   4.6543   5.6642   8.6530   9.1618   9.5106  11.6182

          k =-0.0000-0.1170 0.1170 (  1391 PWs)   bands (ev):

    -5.5704   4.4202   5.1709   5.8967   8.8084   8.8654   8.9580  10.6569

          k = 0.2340 0.0000 0.0000 (  1375 PWs)   bands (ev):

    -5.3327   3.9537   4.8463   4.8463   7.7227  10.2136  10.3105  10.3105

          k = 0.2926 0.0585-0.0585 (  1366 PWs)   bands (ev):

    -5.0115   2.8878   4.4980   4.5173   7.7422   9.8517  10.6610  10.8672

          k = 0.3511 0.1170-0.1170 (  1370 PWs)   bands (ev):

    -4.5329   1.6038   4.0491   4.3015   7.9788  10.0112  10.5176  11.0440

          k = 0.4096 0.1755-0.1755 (  1378 PWs)   bands (ev):

    -3.9382   0.3945   3.6158   4.2177   8.0226  10.1988  10.8788  11.0380

          k =-0.2340-0.4681 0.4681 (  1384 PWs)   bands (ev):

    -3.3703  -0.5175   3.2774   4.2693   8.0494  10.0711  10.6164  12.3768

          k =-0.1755-0.4096 0.4096 (  1383 PWs)   bands (ev):

    -3.2598  -0.6724   3.0690   4.4489   8.1838  10.0322  10.3938  13.9067

          k =-0.1170-0.3511 0.3511 (  1381 PWs)   bands (ev):

    -3.7449   0.0672   3.0171   4.7377   8.4332  10.0950  10.2239  13.2024

          k =-0.0585-0.2926 0.2926 (  1375 PWs)   bands (ev):

    -4.3550   1.1890   3.1652   5.0985   8.7458   9.9857  10.1558  12.0512

          k = 0.0000-0.2340 0.2340 (  1370 PWs)   bands (ev):

    -4.8763   2.3100   3.6525   5.4557   8.9811   9.5430   9.8255  11.5888

          k = 0.3511 0.0000 0.0000 (  1355 PWs)   bands (ev):

    -4.7458   2.4882   4.1613   4.1613   7.1611   9.1477  11.6991  11.6991

          k = 0.4096 0.0585-0.0585 (  1370 PWs)   bands (ev):

    -4.3174   1.5939   3.7041   3.9186   7.2447   8.8044  11.9711  12.1807

          k = 0.4681 0.1170-0.1170 (  1375 PWs)   bands (ev):

    -3.7538   0.5864   3.0833   3.8125   7.4648   9.2637  11.8277  12.1538

          k =-0.1755-0.5266 0.5266 (  1374 PWs)   bands (ev):

    -3.1447  -0.3174   2.5461   3.8497   7.5531  10.4468  11.6525  11.8888

          k =-0.1170-0.4681 0.4681 (  1372 PWs)   bands (ev):

    -2.8314  -0.7191   2.1908   4.0257   7.7267  11.4230  11.5962  12.0899

          k =-0.0585-0.4096 0.4096 (  1370 PWs)   bands (ev):

    -3.1969  -0.2388   2.0774   4.3242   8.0395  11.2904  11.3909  13.0884

          k = 0.0000-0.3511 0.3511 (  1368 PWs)   bands (ev):

    -3.8044   0.5668   2.3396   4.7083   8.4463  10.7547  11.1008  12.0438

          k = 0.4681 0.0000 0.0000 (  1379 PWs)   bands (ev):

    -3.9387   1.0158   3.6422   3.6422   6.7690   8.0347  13.1817  13.1817

          k = 0.5266 0.0585-0.0585 (  1375 PWs)   bands (ev):

    -3.4142   0.2429   3.1687   3.5017   6.9313   7.9022  13.4891  13.5566

          k =-0.1170-0.5851 0.5851 (  1372 PWs)   bands (ev):

    -2.7988  -0.5116   2.4595   3.5072   7.1079   8.7355  13.3737  13.3886

          k =-0.0585-0.5266 0.5266 (  1377 PWs)   bands (ev):

    -2.3439  -0.9901   1.8953   3.6578   7.2812  10.1616  13.0391  13.2077

          k =-0.0000-0.4681 0.4681 (  1382 PWs)   bands (ev):

    -2.6121  -0.7075   1.6981   3.9406   7.5990  11.7972  12.4129  12.9791

          k = 0.5851 0.0000 0.0000 (  1367 PWs)   bands (ev):

    -2.9284  -0.4105   3.3223   3.3223   6.6216   7.2287  14.7151  14.7151

          k =-0.0585-0.6436 0.6436 (  1369 PWs)   bands (ev):

    -2.3269  -1.0866   2.9034   3.2890   6.8237   7.3841  14.9620  15.0412

          k = 0.0000-0.5851 0.5851 (  1366 PWs)   bands (ev):

    -1.8846  -1.4812   2.2522   3.4038   6.9816   8.5621  14.4148  14.8895

          k =-0.7021 0.0000 0.0000 (  1362 PWs)   bands (ev):

    -1.7404  -1.7404   3.2145   3.2145   6.7638   6.7638  15.9274  15.9274

          k = 0.2340 0.1170 0.0000 (  1368 PWs)   bands (ev):

    -5.2178   3.2869   4.4154   5.3157   8.3432   9.4692  10.1264  10.8812

          k = 0.2926 0.1755-0.0585 (  1367 PWs)   bands (ev):

    -4.7898   2.0666   3.8878   5.0461   8.6125   9.4533  10.5329  10.8973

          k = 0.3511 0.2340-0.1170 (  1376 PWs)   bands (ev):

    -4.2265   0.7905   3.6170   4.7260   8.6330   9.3778  10.5937  11.5304

          k =-0.2926-0.4096 0.5266 (  1383 PWs)   bands (ev):

    -3.6199  -0.2758   3.4877   4.4856   8.5631   9.2188  10.5193  12.7194

          k =-0.2340-0.3511 0.4681 (  1380 PWs)   bands (ev):

    -3.2922  -0.7607   3.4511   4.3965   8.5353   9.1449  10.4762  13.9981

          k = 0.3511 0.1170 0.0000 (  1371 PWs)   bands (ev):

    -4.6376   2.0988   3.7322   4.4155   7.8080   9.5248  10.7760  11.5828

          k = 0.4096 0.1755-0.0585 (  1378 PWs)   bands (ev):

    -4.1156   1.0681   3.2013   4.1347   8.1379   9.7479  10.5186  11.9677

          k =-0.2340-0.4681 0.5851 (  1382 PWs)   bands (ev):

    -3.5041   0.0377   2.8460   3.9299   8.2592  10.1909  10.7781  11.9536

          k =-0.1755-0.4096 0.5266 (  1385 PWs)   bands (ev):

    -3.0215  -0.6496   2.6032   3.9122   8.3827   9.9193  11.8471  12.2320

          k =-0.1170-0.3511 0.4681 (  1374 PWs)   bands (ev):

    -3.1532  -0.4675   2.4894   4.0805   8.6223   9.7371  11.7572  12.6291

          k =-0.0585-0.2926 0.4096 (  1373 PWs)   bands (ev):

    -3.7284   0.3873   2.5677   4.3900   8.9645   9.6004  11.2513  11.7337

          k =-0.0000-0.2340 0.3511 (  1377 PWs)   bands (ev):

    -4.3181   1.3475   2.9796   4.7627   9.2059   9.3193  10.6678  11.2924

          k = 0.4681 0.1170 0.0000 (  1379 PWs)   bands (ev):

    -3.8424   0.8447   3.2316   3.6505   7.4208   8.5102  11.9965  13.1325

          k =-0.1755-0.5266 0.6436 (  1375 PWs)   bands (ev):

    -3.2493   0.0241   2.6567   3.4391   7.7549   9.0255  11.7029  13.4969

          k =-0.1170-0.4681 0.5851 (  1375 PWs)   bands (ev):

    -2.6749  -0.6738   2.1470   3.4464   7.9079  10.3036  11.4102  13.4240

          k =-0.0585-0.4096 0.5266 (  1380 PWs)   bands (ev):

    -2.6075  -0.7414   1.8659   3.6404   8.1580  11.0380  12.0101  12.6602

          k = 0.0000-0.3511 0.4681 (  1363 PWs)   bands (ev):

    -3.1319  -0.1630   1.9517   3.9778   8.5380  10.6218  11.4652  12.7890

          k =-0.1170-0.5851 0.7021 (  1362 PWs)   bands (ev):

    -2.8533  -0.4475   2.9531   3.1468   7.2578   7.7739  13.3576  14.7078

          k =-0.0585-0.5266 0.6436 (  1372 PWs)   bands (ev):

    -2.2384  -1.0795   2.3431   3.1034   7.5495   8.6588  13.0456  14.4885

          k =-0.0000-0.4681 0.5851 (  1378 PWs)   bands (ev):

    -2.0917  -1.1876   1.8585   3.2964   7.7820  10.1690  12.5906  12.9815

          k =-0.7021 0.1170 0.0000 (  1372 PWs)   bands (ev):

    -1.7043  -1.7043   2.9190   2.9190   7.3640   7.3640  14.8002  14.8002

          k =-0.2340-0.4681 0.7021 (  1370 PWs)   bands (ev):

    -3.5629   0.3982   2.5187   3.7664   8.8565   9.7349  10.1851  12.9938

          k =-0.1755-0.4096 0.6436 (  1375 PWs)   bands (ev):

    -2.9531  -0.3565   2.1770   3.4383   9.2337   9.7580  10.7217  13.4203

          k =-0.1170-0.3511 0.5851 (  1380 PWs)   bands (ev):

    -2.6029  -0.7737   2.0840   3.3124   9.3809   9.5264  12.0724  12.4456

          k =-0.1170-0.4681 0.7021 (  1370 PWs)   bands (ev):

    -2.6461  -0.5902   2.3256   2.9337   8.6933   9.1034  11.3323  14.2149

          k =-0.0585-0.4096 0.6436 (  1380 PWs)   bands (ev):

    -2.1360  -1.0872   2.0198   2.7827   9.0349  10.2940  11.0538  12.4346

          k = 0.0000-0.3511 0.5851 (  1378 PWs)   bands (ev):

    -2.3633  -0.8603   1.8977   3.0023   9.3334  10.4663  10.9597  12.1856

          k =-0.7021 0.2340 0.0000 (  1384 PWs)   bands (ev):

    -1.6273  -1.6273   2.4488   2.4488   8.7646   8.7646  12.6975  12.6975

          k =-0.7021 0.3511-0.0000 (  1384 PWs)   bands (ev):

    -1.5859  -1.5859   2.2477   2.2477  10.2892  10.2892  10.9364  10.9364

     the Fermi energy is     6.3091 ev

!    total energy              =     -16.92524779 Ry
     estimated scf accuracy    <          5.4E-13 Ry
     smearing contrib. (-TS)   =      -0.00000020 Ry
     internal energy E=F+TS    =     -16.92524759 Ry

     The total energy is F=E-TS. E is the sum of the following terms:
     one-electron contribution =       4.80377191 Ry
     hartree contribution      =       1.11338080 Ry
     xc contribution           =      -6.16083752 Ry
     ewald contribution        =     -16.68156279 Ry

     convergence has been achieved in   6 iterations

     Forces acting on atoms (cartesian axes, Ry/au):

     atom    1 type  1   force =     0.00000000    0.00000000   -0.00000000
     atom    2 type  1   force =     0.00000000    0.00000000    0.00000000

     Total force =     0.000000     Total SCF correction =     0.000000


     Computing stress (Cartesian axis) and pressure

          total   stress  (Ry/bohr**3)                   (kbar)     P=        0.35
   0.00000241   0.00000000   0.00000000            0.35        0.00        0.00
   0.00000000   0.00000241   0.00000000            0.00        0.35        0.00
   0.00000000   0.00000000   0.00000241            0.00        0.00        0.35

     Energy error            =      1.1E-04 Ry
     Gradient error          =      2.3E-32 Ry/Bohr
     Cell gradient error     =      3.5E-01 kbar

     number of scf cycles    =   3
     number of bfgs steps    =   2

     enthalpy           old  =     -16.9251392582 Ry
     enthalpy           new  =     -16.9252477897 Ry

     CASE: enthalpy          _new < enthalpy          _old

     new trust radius        =       0.0004359405 bohr
     new conv_thr            =            1.0E-12 Ry

     new unit-cell volume =    275.95788 a.u.^3 (    40.89274 Ang^3 )
     density =      2.28091 g/cm^3

CELL_PARAMETERS (angstrom)
  -0.000000000   2.734463105   2.734463105
   2.734463105  -0.000000000   2.734463105
   2.734463105   2.734463105  -0.000000000

ATOMIC_POSITIONS (angstrom)
Si               1.3672315527        4.1016946581        4.1016946581
Si              -0.0000000000        0.0000000000       -0.0000000000



     Writing config-only to output data dir ./pwscf.save/ :
     XML data file
     NEW-OLD atomic charge density approx. for the potential
     New effective cutoffs (rho, wfc):  177.42   44.35

     total cpu time spent up to now is       90.5 secs

     per-process dynamical memory:    20.7 Mb

     Self-consistent Calculation

     iteration #  1     ecut=    45.00 Ry     beta= 0.70
     Davidson diagonalization with overlap
     ethr =  1.00E-06,  avg # of iterations =  1.0

     Threshold (ethr) on eigenvalues was too large:
     Diagonalizing with lowered threshold

     Davidson diagonalization with overlap
     ethr =  1.08E-10,  avg # of iterations =  4.1

     total cpu time spent up to now is       99.8 secs

     total energy              =     -16.92524792 Ry
     estimated scf accuracy    <          4.4E-09 Ry

     iteration #  2     ecut=    45.00 Ry     beta= 0.70
     Davidson diagonalization with overlap
     ethr =  5.48E-11,  avg # of iterations =  1.1

     total cpu time spent up to now is      102.3 secs

     total energy              =     -16.92524792 Ry
     estimated scf accuracy    <          9.5E-11 Ry

     iteration #  3     ecut=    45.00 Ry     beta= 0.70
     Davidson diagonalization with overlap
     ethr =  1.19E-12,  avg # of iterations =  2.2

     total cpu time spent up to now is      106.3 secs

     total energy              =     -16.92524792 Ry
     estimated scf accuracy    <          4.7E-12 Ry

     iteration #  4     ecut=    45.00 Ry     beta= 0.70
     Davidson diagonalization with overlap
     ethr =  1.00E-13,  avg # of iterations =  2.0

     total cpu time spent up to now is      110.0 secs

     End of self-consistent calculation

          k = 0.0000 0.0000 0.0000 (  1411 PWs)   bands (ev):

    -5.8094   6.0107   6.0107   6.0107   8.5582   8.5582   8.5582   9.1116

          k = 0.0585 0.0585-0.0585 (  1390 PWs)   bands (ev):

    -5.7200   5.1493   5.8698   5.8698   8.5626   8.7654   8.7654   9.8218

          k = 0.1170 0.1170-0.1170 (  1381 PWs)   bands (ev):

    -5.4549   3.6416   5.5682   5.5682   8.2828   9.1949   9.1949  11.2685

          k = 0.1755 0.1755-0.1755 (  1375 PWs)   bands (ev):

    -5.0250   2.1178   5.2630   5.2630   7.9567   9.4941   9.4941  12.7433

          k = 0.2340 0.2340-0.2340 (  1380 PWs)   bands (ev):

    -4.4602   0.7344   5.0250   5.0250   7.6902   9.5092   9.5092  13.7855

          k = 0.2925 0.2925-0.2925 (  1383 PWs)   bands (ev):

    -3.8554  -0.3723   4.8780   4.8780   7.5217   9.4077   9.4077  13.7891

          k =-0.3510-0.3510 0.3510 (  1380 PWs)   bands (ev):

    -3.5322  -0.8644   4.8286   4.8286   7.4645   9.3569   9.3569  13.7139

          k = 0.1170 0.0000 0.0000 (  1391 PWs)   bands (ev):

    -5.6901   5.2974   5.5908   5.5908   8.2902   9.1248   9.1248   9.7750

          k = 0.1755 0.0585-0.0585 (  1380 PWs)   bands (ev):

    -5.4831   4.0818   5.2337   5.4117   8.3096   9.1585   9.6540  10.7575

          k = 0.2340 0.1170-0.1170 (  1372 PWs)   bands (ev):

    -5.1065   2.6029   4.9251   5.0915   8.4071   9.1661  10.0396  11.3657

          k = 0.2925 0.1755-0.1755 (  1380 PWs)   bands (ev):

    -4.5815   1.1910   4.7173   4.7430   8.2418   9.2826  10.0761  11.9455

          k = 0.3510 0.2340-0.2340 (  1387 PWs)   bands (ev):

    -3.9706  -0.0153   4.4513   4.6274   8.0696   9.2693   9.8948  12.9741

          k =-0.2925-0.4095 0.4095 (  1379 PWs)   bands (ev):

    -3.4946  -0.7660   4.2505   4.6563   7.9855   9.2790   9.7030  13.8753

          k =-0.2340-0.3510 0.3510 (  1387 PWs)   bands (ev):

    -3.6114  -0.5932   4.1584   4.7959   8.0089   9.3954   9.5934  13.9833

          k =-0.1755-0.2925 0.2925 (  1378 PWs)   bands (ev):

    -4.1773   0.3571   4.1877   5.0310   8.1392   9.5551   9.5971  13.4076

          k =-0.1170-0.2340 0.2340 (  1369 PWs)   bands (ev):

    -4.7717   1.6471   4.3479   5.3359   8.3637   9.4621   9.7342  12.4285

          k =-0.0585-0.1755 0.1755 (  1375 PWs)   bands (ev):

    -5.2508   3.0812   4.6508   5.6602   8.6476   9.1574   9.5060  11.6118

          k =-0.0000-0.1170 0.1170 (  1391 PWs)   bands (ev):

    -5.5719   4.4161   5.1673   5.8926   8.8041   8.8600   8.9535  10.6498

          k = 0.2340 0.0000 0.0000 (  1375 PWs)   bands (ev):

    -5.3342   3.9493   4.8428   4.8428   7.7188  10.2076  10.3056  10.3056

          k = 0.2925 0.0585-0.0585 (  1366 PWs)   bands (ev):

    -5.0132   2.8838   4.4944   4.5139   7.7382   9.8465  10.6564  10.8622

          k = 0.3510 0.1170-0.1170 (  1370 PWs)   bands (ev):

    -4.5348   1.6003   4.0456   4.2981   7.9748  10.0058  10.5132  11.0391

          k = 0.4095 0.1755-0.1755 (  1378 PWs)   bands (ev):

    -3.9403   0.3915   3.6124   4.2143   8.0186  10.1935  10.8742  11.0335

          k =-0.2340-0.4680 0.4680 (  1384 PWs)   bands (ev):

    -3.3726  -0.5201   3.2741   4.2659   8.0452  10.0660  10.6120  12.3717

          k =-0.1755-0.4095 0.4095 (  1383 PWs)   bands (ev):

    -3.2622  -0.6749   3.0658   4.4454   8.1795  10.0272  10.3895  13.9010

          k =-0.1170-0.3510 0.3510 (  1381 PWs)   bands (ev):

    -3.7470   0.0643   3.0140   4.7341   8.4286  10.0902  10.2195  13.1965

          k =-0.0585-0.2925 0.2925 (  1375 PWs)   bands (ev):

    -4.3569   1.1856   3.1623   5.0947   8.7409   9.9811  10.1510  12.0455

          k = 0.0000-0.2340 0.2340 (  1370 PWs)   bands (ev):

    -4.8780   2.3062   3.6494   5.4517   8.9758   9.5385   9.8207  11.5831

          k = 0.3510 0.0000 0.0000 (  1355 PWs)   bands (ev):

    -4.7475   2.4840   4.1580   4.1580   7.1574   9.1436  11.6938  11.6938

          k = 0.4095 0.0585-0.0585 (  1370 PWs)   bands (ev):

    -4.3193   1.5901   3.7009   3.9154   7.2410   8.8005  11.9655  12.1754

          k = 0.4680 0.1170-0.1170 (  1375 PWs)   bands (ev):

    -3.7559   0.5830   3.0803   3.8093   7.4611   9.2596  11.8220  12.1487

          k =-0.1755-0.5265 0.5265 (  1374 PWs)   bands (ev):

    -3.1471  -0.3204   2.5434   3.8464   7.5495  10.4424  11.6466  11.8840

          k =-0.1170-0.4680 0.4680 (  1372 PWs)   bands (ev):

    -2.8339  -0.7219   2.1882   4.0224   7.7229  11.4180  11.5914  12.0843

          k =-0.0585-0.4095 0.4095 (  1370 PWs)   bands (ev):

    -3.1993  -0.2419   2.0749   4.3207   8.0355  11.2856  11.3857  13.0823

          k = 0.0000-0.3510 0.3510 (  1368 PWs)   bands (ev):

    -3.8066   0.5635   2.3370   4.7047   8.4420  10.7499  11.0958  12.0377

          k = 0.4680 0.0000 0.0000 (  1379 PWs)   bands (ev):

    -3.9407   1.0120   3.6391   3.6391   6.7655   8.0312  13.1759  13.1759

          k = 0.5265 0.0585-0.0585 (  1375 PWs)   bands (ev):

    -3.4165   0.2395   3.1658   3.4985   6.9278   7.8986  13.4830  13.5509

          k =-0.1170-0.5850 0.5850 (  1372 PWs)   bands (ev):

    -2.8013  -0.5148   2.4569   3.5041   7.1045   8.7315  13.3675  13.3832

          k =-0.0585-0.5265 0.5265 (  1377 PWs)   bands (ev):

    -2.3466  -0.9931   1.8930   3.6546   7.2776  10.1572  13.0337  13.2015

          k =-0.0000-0.4680 0.4680 (  1382 PWs)   bands (ev):

    -2.6148  -0.7106   1.6959   3.9373   7.5953  11.7927  12.4075  12.9730

          k = 0.5850 0.0000 0.0000 (  1367 PWs)   bands (ev):

    -2.9308  -0.4137   3.3192   3.3192   6.6182   7.2253  14.7088  14.7088

          k =-0.0585-0.6435 0.6435 (  1369 PWs)   bands (ev):

    -2.3295  -1.0896   2.9006   3.2859   6.8204   7.3806  14.9557  15.0345

          k = 0.0000-0.5850 0.5850 (  1366 PWs)   bands (ev):

    -1.8875  -1.4840   2.2497   3.4007   6.9782   8.5581  14.4086  14.8823

          k =-0.7020 0.0000 0.0000 (  1362 PWs)   bands (ev):

    -1.7432  -1.7432   3.2114   3.2114   6.7605   6.7605  15.9200  15.9200

          k = 0.2340 0.1170 0.0000 (  1368 PWs)   bands (ev):

    -5.2194   3.2829   4.4121   5.3118   8.3390   9.4635  10.1216  10.8763

          k = 0.2925 0.1755-0.0585 (  1367 PWs)   bands (ev):

    -4.7915   2.0630   3.8845   5.0424   8.6081   9.4479  10.5281  10.8930

          k = 0.3510 0.2340-0.1170 (  1376 PWs)   bands (ev):

    -4.2284   0.7874   3.6137   4.7224   8.6282   9.3733  10.5890  11.5257

          k =-0.2925-0.4095 0.5265 (  1383 PWs)   bands (ev):

    -3.6222  -0.2785   3.4843   4.4821   8.5581   9.2149  10.5146  12.7143

          k =-0.2340-0.3510 0.4680 (  1380 PWs)   bands (ev):

    -3.2946  -0.7631   3.4478   4.3930   8.5302   9.1411  10.4716  13.9925

          k = 0.3510 0.1170 0.0000 (  1371 PWs)   bands (ev):

    -4.6394   2.0949   3.7291   4.4120   7.8040   9.5204  10.7710  11.5775

          k = 0.4095 0.1755-0.0585 (  1378 PWs)   bands (ev):

    -4.1176   1.0646   3.1983   4.1313   8.1338   9.7435  10.5136  11.9624

          k =-0.2340-0.4680 0.5850 (  1382 PWs)   bands (ev):

    -3.5064   0.0347   2.8430   3.9266   8.2551  10.1862  10.7733  11.9483

          k =-0.1755-0.4095 0.5265 (  1385 PWs)   bands (ev):

    -3.0240  -0.6523   2.6003   3.9090   8.3786   9.9147  11.8419  12.2268

          k =-0.1170-0.3510 0.4680 (  1374 PWs)   bands (ev):

    -3.1557  -0.4703   2.4866   4.0772   8.6180   9.7327  11.7519  12.6241

          k =-0.0585-0.2925 0.4095 (  1373 PWs)   bands (ev):

    -3.7305   0.3841   2.5650   4.3865   8.9599   9.5961  11.2463  11.7287

          k = 0.0000-0.2340 0.3510 (  1377 PWs)   bands (ev):

    -4.3200   1.3439   2.9768   4.7591   9.2015   9.3143  10.6634  11.2872

          k = 0.4680 0.1170 0.0000 (  1379 PWs)   bands (ev):

    -3.8444   0.8410   3.2286   3.6474   7.4171   8.5064  11.9910  13.1268

          k =-0.1755-0.5265 0.6435 (  1375 PWs)   bands (ev):

    -3.2516   0.0207   2.6540   3.4361   7.7511   9.0215  11.6975  13.4911

          k =-0.1170-0.4680 0.5850 (  1375 PWs)   bands (ev):

    -2.6775  -0.6768   2.1445   3.4434   7.9041  10.2992  11.4049  13.4180

          k =-0.0585-0.4095 0.5265 (  1380 PWs)   bands (ev):

    -2.6102  -0.7444   1.8635   3.6373   8.1541  11.0333  12.0050  12.6545

          k = 0.0000-0.3510 0.4680 (  1363 PWs)   bands (ev):

    -3.1343  -0.1663   1.9493   3.9746   8.5338  10.6170  11.4601  12.7836

          k =-0.1170-0.5850 0.7020 (  1362 PWs)   bands (ev):

    -2.8558  -0.4508   2.9503   3.1439   7.2541   7.7703  13.3518  14.7014

          k =-0.0585-0.5265 0.6435 (  1372 PWs)   bands (ev):

    -2.2411  -1.0826   2.3406   3.1005   7.5459   8.6548  13.0400  14.4820

          k =-0.0000-0.4680 0.5850 (  1378 PWs)   bands (ev):

    -2.0945  -1.1906   1.8563   3.2934   7.7782  10.1646  12.5851  12.9759

          k =-0.7020 0.1170 0.0000 (  1372 PWs)   bands (ev):

    -1.7072  -1.7072   2.9162   2.9162   7.3605   7.3605  14.7939  14.7939

          k =-0.2340-0.4680 0.7020 (  1370 PWs)   bands (ev):

    -3.5651   0.3947   2.5161   3.7633   8.8523   9.7309  10.1799  12.9882

          k =-0.1755-0.4095 0.6435 (  1375 PWs)   bands (ev):

    -2.9556  -0.3596   2.1744   3.4354   9.2295   9.7536  10.7168  13.4144

          k =-0.1170-0.3510 0.5850 (  1380 PWs)   bands (ev):

    -2.6056  -0.7767   2.0814   3.3095   9.3771   9.5216  12.0674  12.4400

          k =-0.1170-0.4680 0.7020 (  1370 PWs)   bands (ev):

    -2.6486  -0.5935   2.3231   2.9310   8.6892   9.0994  11.3271  14.2088

          k =-0.0585-0.4095 0.6435 (  1380 PWs)   bands (ev):

    -2.1388  -1.0903   2.0175   2.7801   9.0308  10.2897  11.0486  12.4292

          k = 0.0000-0.3510 0.5850 (  1378 PWs)   bands (ev):

    -2.3660  -0.8634   1.8954   2.9996   9.3293  10.4618  10.9547  12.1802

          k =-0.7020 0.2340 0.0000 (  1384 PWs)   bands (ev):

    -1.6302  -1.6302   2.4463   2.4463   8.7605   8.7605  12.6920  12.6920

          k =-0.7020 0.3510-0.0000 (  1384 PWs)   bands (ev):

    -1.5889  -1.5889   2.2453   2.2453  10.2852  10.2852  10.9309  10.9309

     the Fermi energy is     6.3054 ev

!    total energy              =     -16.92524792 Ry
     estimated scf accuracy    <          7.6E-14 Ry
     smearing contrib. (-TS)   =      -0.00000020 Ry
     internal energy E=F+TS    =     -16.92524773 Ry

     The total energy is F=E-TS. E is the sum of the following terms:
     one-electron contribution =       4.80080228 Ry
     hartree contribution      =       1.11372788 Ry
     xc contribution           =      -6.16040409 Ry
     ewald contribution        =     -16.67937381 Ry

     convergence has been achieved in   4 iterations

     Forces acting on atoms (cartesian axes, Ry/au):

     atom    1 type  1   force =     0.00000000    0.00000000   -0.00000000
     atom    2 type  1   force =    -0.00000000   -0.00000000    0.00000000

     Total force =     0.000000     Total SCF correction =     0.000000


     Computing stress (Cartesian axis) and pressure

          total   stress  (Ry/bohr**3)                   (kbar)     P=        0.01
   0.00000005  -0.00000000   0.00000000            0.01       -0.00        0.00
  -0.00000000   0.00000005   0.00000000           -0.00        0.01        0.00
   0.00000000   0.00000000   0.00000005            0.00        0.00        0.01

     Energy error            =      1.3E-07 Ry
     Gradient error          =      2.0E-32 Ry/Bohr
     Cell gradient error     =      6.6E-03 kbar

     bfgs converged in   4 scf cycles and   3 bfgs steps
     (criteria: energy <  1.0E-06 Ry, force <  1.0E-05 Ry/Bohr, cell <  5.0E-01 kbar)

     End of BFGS Geometry Optimization

     Final enthalpy           =     -16.9252479231 Ry

     File ./pwscf.bfgs deleted, as requested
Begin final coordinates
     new unit-cell volume =    275.95788 a.u.^3 (    40.89274 Ang^3 )
     density =      2.28091 g/cm^3

CELL_PARAMETERS (angstrom)
  -0.000000000   2.734463105   2.734463105
   2.734463105  -0.000000000   2.734463105
   2.734463105   2.734463105  -0.000000000

ATOMIC_POSITIONS (angstrom)
Si               1.3672315527        4.1016946581        4.1016946581
Si              -0.0000000000        0.0000000000       -0.0000000000
End final coordinates



     Writing config-only to output data dir ./pwscf.save/ :
     XML data file

     Final scf calculation at the relaxed structure.
     The G-vectors are recalculated for the final unit cell
     Results may differ from those at the preceding step.

     Parallelization info
     --------------------
     sticks:   dense  smooth     PW     G-vecs:    dense   smooth      PW
     Min         330     330    105                 5595     5595     994
     Max         331     331    106                 5596     5596     995
     Sum         661     661    211                11191    11191    1989

     Using Slab Decomposition



     bravais-lattice index     =            0
     lattice parameter (alat)  =       7.2555  a.u.
     unit-cell volume          =     275.9579 (a.u.)^3
     number of atoms/cell      =            2
     number of atomic types    =            1
     number of electrons       =         8.00
     number of Kohn-Sham states=            8
     kinetic-energy cutoff     =      45.0000  Ry
     charge density cutoff     =     180.0000  Ry
     scf convergence threshold =      1.0E-12
     mixing beta               =       0.7000
     number of iterations used =            8  plain     mixing
     press convergence thresh. =      5.0E-01
     Exchange-correlation= PBE
                           (   1   4   3   4   0   0   0)

     celldm(1)=   7.255506  celldm(2)=   0.000000  celldm(3)=   0.000000
     celldm(4)=   0.000000  celldm(5)=   0.000000  celldm(6)=   0.000000

     crystal axes: (cart. coord. in units of alat)
               a(1) = (  -0.000000   0.712202   0.712202 )  
               a(2) = (   0.712202  -0.000000   0.712202 )  
               a(3) = (   0.712202   0.712202  -0.000000 )  

     reciprocal axes: (cart. coord. in units 2 pi/alat)
               b(1) = ( -0.702048  0.702048  0.702048 )  
               b(2) = (  0.702048 -0.702048  0.702048 )  
               b(3) = (  0.702048  0.702048 -0.702048 )  


     PseudoPot. # 1 for Si read from file:
     ./Si.upf
     MD5 check sum: 02fab3f35e82123ef5bf1cb05d5b1a5e
     Pseudo is Norm-conserving + core correction, Zval =  4.0
     Generated using ONCVPSP code by D. R. Hamann
     Using radial grid of 1510 points,  6 beta functions with: 
                l(1) =   0
                l(2) =   0
                l(3) =   1
                l(4) =   1
                l(5) =   2
                l(6) =   2

     atomic species   valence    mass     pseudopotential
     Si                4.00    28.08500     Si( 1.00)

     48 Sym. Ops., with inversion, found (24 have fractional translation)



   Cartesian axes

     site n.     atom                  positions (alat units)
         1        Si     tau(   1) = (   0.3561010   1.0683031   1.0683031  )
         2        Si     tau(   2) = (  -0.0000000   0.0000000  -0.0000000  )

     number of k points=    72  Gaussian smearing, width (Ry)=  0.0100
                       cart. coord. in units 2pi/alat
        k(    1) = (   0.0000000   0.0000000   0.0000000), wk =   0.0011574
        k(    2) = (   0.0585040   0.0585040  -0.0585040), wk =   0.0092593
        k(    3) = (   0.1170080   0.1170080  -0.1170080), wk =   0.0092593
        k(    4) = (   0.1755120   0.1755120  -0.1755120), wk =   0.0092593
        k(    5) = (   0.2340160   0.2340160  -0.2340160), wk =   0.0092593
        k(    6) = (   0.2925200   0.2925200  -0.2925200), wk =   0.0092593
        k(    7) = (  -0.3510240  -0.3510240   0.3510240), wk =   0.0046296
        k(    8) = (   0.1170080   0.0000000   0.0000000), wk =   0.0069444
        k(    9) = (   0.1755120   0.0585040  -0.0585040), wk =   0.0277778
        k(   10) = (   0.2340160   0.1170080  -0.1170080), wk =   0.0277778
        k(   11) = (   0.2925200   0.1755120  -0.1755120), wk =   0.0277778
        k(   12) = (   0.3510240   0.2340160  -0.2340160), wk =   0.0277778
        k(   13) = (  -0.2925200  -0.4095280   0.4095280), wk =   0.0277778
        k(   14) = (  -0.2340160  -0.3510240   0.3510240), wk =   0.0277778
        k(   15) = (  -0.1755120  -0.2925200   0.2925200), wk =   0.0277778
        k(   16) = (  -0.1170080  -0.2340160   0.2340160), wk =   0.0277778
        k(   17) = (  -0.0585040  -0.1755120   0.1755120), wk =   0.0277778
        k(   18) = (  -0.0000000  -0.1170080   0.1170080), wk =   0.0138889
        k(   19) = (   0.2340160   0.0000000   0.0000000), wk =   0.0069444
        k(   20) = (   0.2925200   0.0585040  -0.0585040), wk =   0.0277778
        k(   21) = (   0.3510240   0.1170080  -0.1170080), wk =   0.0277778
        k(   22) = (   0.4095280   0.1755120  -0.1755120), wk =   0.0277778
        k(   23) = (  -0.2340160  -0.4680320   0.4680320), wk =   0.0277778
        k(   24) = (  -0.1755120  -0.4095280   0.4095280), wk =   0.0277778
        k(   25) = (  -0.1170080  -0.3510240   0.3510240), wk =   0.0277778
        k(   26) = (  -0.0585040  -0.2925200   0.2925200), wk =   0.0277778
        k(   27) = (   0.0000000  -0.2340160   0.2340160), wk =   0.0138889
        k(   28) = (   0.3510240   0.0000000   0.0000000), wk =   0.0069444
        k(   29) = (   0.4095280   0.0585040  -0.0585040), wk =   0.0277778
        k(   30) = (   0.4680320   0.1170080  -0.1170080), wk =   0.0277778
        k(   31) = (  -0.1755120  -0.5265360   0.5265360), wk =   0.0277778
        k(   32) = (  -0.1170080  -0.4680320   0.4680320), wk =   0.0277778
        k(   33) = (  -0.0585040  -0.4095280   0.4095280), wk =   0.0277778
        k(   34) = (   0.0000000  -0.3510240   0.3510240), wk =   0.0138889
        k(   35) = (   0.4680320   0.0000000   0.0000000), wk =   0.0069444
        k(   36) = (   0.5265360   0.0585040  -0.0585040), wk =   0.0277778
        k(   37) = (  -0.1170080  -0.5850400   0.5850400), wk =   0.0277778
        k(   38) = (  -0.0585040  -0.5265360   0.5265360), wk =   0.0277778
        k(   39) = (  -0.0000000  -0.4680320   0.4680320), wk =   0.0138889
        k(   40) = (   0.5850400   0.0000000   0.0000000), wk =   0.0069444
        k(   41) = (  -0.0585040  -0.6435439   0.6435439), wk =   0.0277778
        k(   42) = (   0.0000000  -0.5850400   0.5850400), wk =   0.0138889
        k(   43) = (  -0.7020479   0.0000000   0.0000000), wk =   0.0034722
        k(   44) = (   0.2340160   0.1170080   0.0000000), wk =   0.0277778
        k(   45) = (   0.2925200   0.1755120  -0.0585040), wk =   0.0555556
        k(   46) = (   0.3510240   0.2340160  -0.1170080), wk =   0.0555556
        k(   47) = (  -0.2925200  -0.4095280   0.5265360), wk =   0.0555556
        k(   48) = (  -0.2340160  -0.3510240   0.4680320), wk =   0.0277778
        k(   49) = (   0.3510240   0.1170080   0.0000000), wk =   0.0277778
        k(   50) = (   0.4095280   0.1755120  -0.0585040), wk =   0.0555556
        k(   51) = (  -0.2340160  -0.4680320   0.5850400), wk =   0.0555556
        k(   52) = (  -0.1755120  -0.4095280   0.5265360), wk =   0.0555556
        k(   53) = (  -0.1170080  -0.3510240   0.4680320), wk =   0.0555556
        k(   54) = (  -0.0585040  -0.2925200   0.4095280), wk =   0.0555556
        k(   55) = (   0.0000000  -0.2340160   0.3510240), wk =   0.0277778
        k(   56) = (   0.4680320   0.1170080   0.0000000), wk =   0.0277778
        k(   57) = (  -0.1755120  -0.5265360   0.6435439), wk =   0.0555556
        k(   58) = (  -0.1170080  -0.4680320   0.5850400), wk =   0.0555556
        k(   59) = (  -0.0585040  -0.4095280   0.5265360), wk =   0.0555556
        k(   60) = (   0.0000000  -0.3510240   0.4680320), wk =   0.0277778
        k(   61) = (  -0.1170080  -0.5850400   0.7020479), wk =   0.0277778
        k(   62) = (  -0.0585040  -0.5265360   0.6435439), wk =   0.0555556
        k(   63) = (  -0.0000000  -0.4680320   0.5850400), wk =   0.0277778
        k(   64) = (  -0.7020479   0.1170080   0.0000000), wk =   0.0138889
        k(   65) = (  -0.2340160  -0.4680320   0.7020479), wk =   0.0277778
        k(   66) = (  -0.1755120  -0.4095280   0.6435439), wk =   0.0555556
        k(   67) = (  -0.1170080  -0.3510240   0.5850400), wk =   0.0277778
        k(   68) = (  -0.1170080  -0.4680320   0.7020479), wk =   0.0277778
        k(   69) = (  -0.0585040  -0.4095280   0.6435439), wk =   0.0555556
        k(   70) = (   0.0000000  -0.3510240   0.5850400), wk =   0.0277778
        k(   71) = (  -0.7020479   0.2340160   0.0000000), wk =   0.0138889
        k(   72) = (  -0.7020479   0.3510240  -0.0000000), wk =   0.0069444

     Dense  grid:    11191 G-vectors     FFT dimensions: (  32,  32,  32)

     Estimated max dynamical RAM per process >      12.66 MB

     Estimated total dynamical RAM >      25.32 MB

     Initial potential from superposition of free atoms

     starting charge       7.9988, renormalised to       8.0000
     Starting wfcs are    8 randomized atomic wfcs

     total cpu time spent up to now is      113.6 secs

     per-process dynamical memory:    19.7 Mb

     Self-consistent Calculation

     iteration #  1     ecut=    45.00 Ry     beta= 0.70
     Davidson diagonalization with overlap
     c_bands:  1 eigenvalues not converged
     c_bands:  1 eigenvalues not converged
     c_bands:  2 eigenvalues not converged
     c_bands:  1 eigenvalues not converged
     c_bands:  1 eigenvalues not converged
     c_bands:  1 eigenvalues not converged
     ethr =  1.00E-06,  avg # of iterations = 15.3

     total cpu time spent up to now is      132.9 secs

     total energy              =     -16.92305092 Ry
     estimated scf accuracy    <       0.05516620 Ry

     iteration #  2     ecut=    45.00 Ry     beta= 0.70
     Davidson diagonalization with overlap
     ethr =  6.90E-04,  avg # of iterations =  1.0

     total cpu time spent up to now is      135.7 secs

     total energy              =     -16.92513398 Ry
     estimated scf accuracy    <       0.00211466 Ry

     iteration #  3     ecut=    45.00 Ry     beta= 0.70
     Davidson diagonalization with overlap
     ethr =  2.64E-05,  avg # of iterations =  1.3

     total cpu time spent up to now is      138.9 secs

     total energy              =     -16.92523758 Ry
     estimated scf accuracy    <       0.00003194 Ry

     iteration #  4     ecut=    45.00 Ry     beta= 0.70
     Davidson diagonalization with overlap
     ethr =  3.99E-07,  avg # of iterations =  2.7

     total cpu time spent up to now is      143.3 secs

     total energy              =     -16.92524791 Ry
     estimated scf accuracy    <       0.00000087 Ry

     iteration #  5     ecut=    45.00 Ry     beta= 0.70
     Davidson diagonalization with overlap
     ethr =  1.09E-08,  avg # of iterations =  2.8

     total cpu time spent up to now is      148.3 secs

     total energy              =     -16.92524836 Ry
     estimated scf accuracy    <       0.00000004 Ry

     iteration #  6     ecut=    45.00 Ry     beta= 0.70
     Davidson diagonalization with overlap
     ethr =  5.40E-10,  avg # of iterations =  2.8

     total cpu time spent up to now is      153.2 secs

     total energy              =     -16.92524837 Ry
     estimated scf accuracy    <          2.7E-10 Ry

     iteration #  7     ecut=    45.00 Ry     beta= 0.70
     Davidson diagonalization with overlap
     ethr =  3.35E-12,  avg # of iterations =  3.9

     total cpu time spent up to now is      159.6 secs

     total energy              =     -16.92524837 Ry
     estimated scf accuracy    <          1.3E-11 Ry

     iteration #  8     ecut=    45.00 Ry     beta= 0.70
     Davidson diagonalization with overlap
     ethr =  1.58E-13,  avg # of iterations =  2.0

     total cpu time spent up to now is      163.3 secs

     End of self-consistent calculation

          k = 0.0000 0.0000 0.0000 (  1411 PWs)   bands (ev):

    -5.8094   6.0107   6.0107   6.0107   8.5582   8.5582   8.5582   9.1116

          k = 0.0585 0.0585-0.0585 (  1417 PWs)   bands (ev):

    -5.7200   5.1493   5.8698   5.8698   8.5626   8.7654   8.7654   9.8218

          k = 0.1170 0.1170-0.1170 (  1411 PWs)   bands (ev):

    -5.4549   3.6416   5.5682   5.5682   8.2828   9.1949   9.1949  11.2684

          k = 0.1755 0.1755-0.1755 (  1399 PWs)   bands (ev):

    -5.0250   2.1177   5.2630   5.2630   7.9567   9.4941   9.4941  12.7433

          k = 0.2340 0.2340-0.2340 (  1411 PWs)   bands (ev):

    -4.4602   0.7344   5.0250   5.0250   7.6902   9.5092   9.5092  13.7855

          k = 0.2925 0.2925-0.2925 (  1422 PWs)   bands (ev):

    -3.8554  -0.3723   4.8780   4.8780   7.5217   9.4077   9.4077  13.7891

          k =-0.3510-0.3510 0.3510 (  1404 PWs)   bands (ev):

    -3.5322  -0.8644   4.8286   4.8286   7.4645   9.3569   9.3569  13.7139

          k = 0.1170 0.0000 0.0000 (  1419 PWs)   bands (ev):

    -5.6901   5.2974   5.5908   5.5908   8.2902   9.1248   9.1248   9.7749

          k = 0.1755 0.0585-0.0585 (  1416 PWs)   bands (ev):

    -5.4831   4.0817   5.2337   5.4117   8.3096   9.1585   9.6540  10.7575

          k = 0.2340 0.1170-0.1170 (  1396 PWs)   bands (ev):

    -5.1065   2.6029   4.9251   5.0915   8.4071   9.1661  10.0396  11.3657

          k = 0.2925 0.1755-0.1755 (  1402 PWs)   bands (ev):

    -4.5815   1.1910   4.7173   4.7430   8.2418   9.2826  10.0761  11.9455

          k = 0.3510 0.2340-0.2340 (  1405 PWs)   bands (ev):

    -3.9706  -0.0153   4.4513   4.6274   8.0696   9.2693   9.8948  12.9741

          k =-0.2925-0.4095 0.4095 (  1416 PWs)   bands (ev):

    -3.4946  -0.7660   4.2505   4.6563   7.9855   9.2790   9.7030  13.8753

          k =-0.2340-0.3510 0.3510 (  1417 PWs)   bands (ev):

    -3.6114  -0.5932   4.1584   4.7959   8.0089   9.3954   9.5934  13.9833

          k =-0.1755-0.2925 0.2925 (  1412 PWs)   bands (ev):

    -4.1773   0.3571   4.1877   5.0310   8.1392   9.5551   9.5971  13.4076

          k =-0.1170-0.2340 0.2340 (  1402 PWs)   bands (ev):

    -4.7717   1.6471   4.3479   5.3359   8.3637   9.4621   9.7342  12.4285

          k =-0.0585-0.1755 0.1755 (  1395 PWs)   bands (ev):

    -5.2508   3.0812   4.6508   5.6602   8.6476   9.1574   9.5060  11.6117

          k =-0.0000-0.1170 0.1170 (  1405 PWs)   bands (ev):

    -5.5719   4.4161   5.1673   5.8926   8.8041   8.8600   8.9535  10.6497

          k = 0.2340 0.0000 0.0000 (  1407 PWs)   bands (ev):

    -5.3342   3.9493   4.8428   4.8428   7.7187  10.2076  10.3056  10.3056

          k = 0.2925 0.0585-0.0585 (  1397 PWs)   bands (ev):

    -5.0132   2.8838   4.4944   4.5139   7.7382   9.8465  10.6564  10.8622

          k = 0.3510 0.1170-0.1170 (  1410 PWs)   bands (ev):

    -4.5348   1.6003   4.0456   4.2981   7.9748  10.0058  10.5132  11.0391

          k = 0.4095 0.1755-0.1755 (  1411 PWs)   bands (ev):

    -3.9403   0.3915   3.6124   4.2143   8.0186  10.1934  10.8742  11.0335

          k =-0.2340-0.4680 0.4680 (  1411 PWs)   bands (ev):

    -3.3726  -0.5201   3.2741   4.2659   8.0452  10.0660  10.6120  12.3716

          k =-0.1755-0.4095 0.4095 (  1406 PWs)   bands (ev):

    -3.2622  -0.6749   3.0658   4.4454   8.1795  10.0272  10.3895  13.9012

          k =-0.1170-0.3510 0.3510 (  1407 PWs)   bands (ev):

    -3.7470   0.0643   3.0140   4.7341   8.4286  10.0902  10.2195  13.1965

          k =-0.0585-0.2925 0.2925 (  1404 PWs)   bands (ev):

    -4.3569   1.1856   3.1622   5.0947   8.7409   9.9811  10.1510  12.0455

          k = 0.0000-0.2340 0.2340 (  1386 PWs)   bands (ev):

    -4.8780   2.3062   3.6494   5.4517   8.9758   9.5385   9.8207  11.5831

          k = 0.3510 0.0000 0.0000 (  1387 PWs)   bands (ev):

    -4.7475   2.4840   4.1580   4.1580   7.1574   9.1436  11.6938  11.6938

          k = 0.4095 0.0585-0.0585 (  1403 PWs)   bands (ev):

    -4.3193   1.5901   3.7009   3.9154   7.2410   8.8005  11.9654  12.1754

          k = 0.4680 0.1170-0.1170 (  1408 PWs)   bands (ev):

    -3.7559   0.5830   3.0803   3.8093   7.4611   9.2596  11.8219  12.1487

          k =-0.1755-0.5265 0.5265 (  1413 PWs)   bands (ev):

    -3.1471  -0.3204   2.5434   3.8464   7.5495  10.4424  11.6466  11.8839

          k =-0.1170-0.4680 0.4680 (  1415 PWs)   bands (ev):

    -2.8339  -0.7219   2.1881   4.0224   7.7229  11.4180  11.5914  12.0843

          k =-0.0585-0.4095 0.4095 (  1412 PWs)   bands (ev):

    -3.1993  -0.2419   2.0749   4.3207   8.0355  11.2856  11.3857  13.0823

          k = 0.0000-0.3510 0.3510 (  1414 PWs)   bands (ev):

    -3.8066   0.5635   2.3370   4.7047   8.4420  10.7499  11.0958  12.0377

          k = 0.4680 0.0000 0.0000 (  1379 PWs)   bands (ev):

    -3.9407   1.0120   3.6391   3.6391   6.7655   8.0312  13.1759  13.1759

          k = 0.5265 0.0585-0.0585 (  1401 PWs)   bands (ev):

    -3.4165   0.2394   3.1658   3.4985   6.9278   7.8986  13.4830  13.5509

          k =-0.1170-0.5850 0.5850 (  1402 PWs)   bands (ev):

    -2.8013  -0.5148   2.4569   3.5041   7.1045   8.7315  13.3675  13.3832

          k =-0.0585-0.5265 0.5265 (  1413 PWs)   bands (ev):

    -2.3466  -0.9931   1.8930   3.6546   7.2776  10.1572  13.0337  13.2015

          k =-0.0000-0.4680 0.4680 (  1420 PWs)   bands (ev):

    -2.6148  -0.7106   1.6959   3.9373   7.5953  11.7927  12.4074  12.9731

          k = 0.5850 0.0000 0.0000 (  1395 PWs)   bands (ev):

    -2.9308  -0.4137   3.3192   3.3192   6.6182   7.2253  14.7088  14.7088

          k =-0.0585-0.6435 0.6435 (  1395 PWs)   bands (ev):

    -2.3295  -1.0896   2.9006   3.2859   6.8204   7.3806  14.9557  15.0345

          k = 0.0000-0.5850 0.5850 (  1410 PWs)   bands (ev):

    -1.8875  -1.4840   2.2497   3.4007   6.9782   8.5581  14.4086  14.8823

          k =-0.7020 0.0000 0.0000 (  1388 PWs)   bands (ev):

    -1.7432  -1.7432   3.2114   3.2114   6.7605   6.7605  15.9200  15.9200

          k = 0.2340 0.1170 0.0000 (  1396 PWs)   bands (ev):

    -5.2194   3.2829   4.4121   5.3118   8.3390   9.4635  10.1216  10.8763

          k = 0.2925 0.1755-0.0585 (  1398 PWs)   bands (ev):

    -4.7915   2.0630   3.8845   5.0423   8.6081   9.4479  10.5281  10.8929

          k = 0.3510 0.2340-0.1170 (  1405 PWs)   bands (ev):

    -4.2284   0.7874   3.6137   4.7224   8.6282   9.3733  10.5890  11.5257

          k =-0.2925-0.4095 0.5265 (  1415 PWs)   bands (ev):

    -3.6222  -0.2785   3.4843   4.4821   8.5581   9.2149  10.5146  12.7143

          k =-0.2340-0.3510 0.4680 (  1416 PWs)   bands (ev):

    -3.2946  -0.7631   3.4478   4.3930   8.5301   9.1411  10.4716  13.9925

          k = 0.3510 0.1170 0.0000 (  1403 PWs)   bands (ev):

    -4.6394   2.0949   3.7291   4.4120   7.8040   9.5204  10.7710  11.5775

          k = 0.4095 0.1755-0.0585 (  1402 PWs)   bands (ev):

    -4.1176   1.0646   3.1983   4.1313   8.1338   9.7435  10.5136  11.9624

          k =-0.2340-0.4680 0.5850 (  1405 PWs)   bands (ev):

    -3.5064   0.0347   2.8430   3.9266   8.2551  10.1861  10.7733  11.9483

          k =-0.1755-0.4095 0.5265 (  1411 PWs)   bands (ev):

    -3.0240  -0.6523   2.6003   3.9090   8.3786   9.9147  11.8419  12.2268

          k =-0.1170-0.3510 0.4680 (  1412 PWs)   bands (ev):

    -3.1557  -0.4703   2.4866   4.0772   8.6180   9.7327  11.7519  12.6241

          k =-0.0585-0.2925 0.4095 (  1408 PWs)   bands (ev):

    -3.7305   0.3841   2.5650   4.3865   8.9599   9.5960  11.2463  11.7287

          k = 0.0000-0.2340 0.3510 (  1405 PWs)   bands (ev):

    -4.3200   1.3439   2.9768   4.7591   9.2014   9.3143  10.6633  11.2872

          k = 0.4680 0.1170 0.0000 (  1399 PWs)   bands (ev):

    -3.8444   0.8410   3.2286   3.6474   7.4170   8.5064  11.9910  13.1268

          k =-0.1755-0.5265 0.6435 (  1406 PWs)   bands (ev):

    -3.2516   0.0207   2.6540   3.4361   7.7511   9.0215  11.6975  13.4911

          k =-0.1170-0.4680 0.5850 (  1410 PWs)   bands (ev):

    -2.6775  -0.6768   2.1445   3.4434   7.9041  10.2992  11.4049  13.4180

          k =-0.0585-0.4095 0.5265 (  1413 PWs)   bands (ev):

    -2.6102  -0.7444   1.8635   3.6373   8.1541  11.0333  12.0049  12.6545

          k = 0.0000-0.3510 0.4680 (  1413 PWs)   bands (ev):

    -3.1343  -0.1663   1.9493   3.9746   8.5338  10.6170  11.4601  12.7836

          k =-0.1170-0.5850 0.7020 (  1406 PWs)   bands (ev):

    -2.8558  -0.4508   2.9503   3.1439   7.2541   7.7703  13.3518  14.7014

          k =-0.0585-0.5265 0.6435 (  1409 PWs)   bands (ev):

    -2.2411  -1.0826   2.3406   3.1005   7.5459   8.6548  13.0400  14.4820

          k =-0.0000-0.4680 0.5850 (  1400 PWs)   bands (ev):

    -2.0945  -1.1906   1.8563   3.2934   7.7782  10.1646  12.5851  12.9759

          k =-0.7020 0.1170 0.0000 (  1406 PWs)   bands (ev):

    -1.7072  -1.7072   2.9162   2.9162   7.3605   7.3605  14.7939  14.7939

          k =-0.2340-0.4680 0.7020 (  1402 PWs)   bands (ev):

    -3.5651   0.3947   2.5161   3.7633   8.8523   9.7309  10.1799  12.9882

          k =-0.1755-0.4095 0.6435 (  1414 PWs)   bands (ev):

    -2.9556  -0.3597   2.1744   3.4354   9.2295   9.7536  10.7168  13.4143

          k =-0.1170-0.3510 0.5850 (  1410 PWs)   bands (ev):

    -2.6056  -0.7767   2.0814   3.3095   9.3771   9.5216  12.0674  12.4400

          k =-0.1170-0.4680 0.7020 (  1411 PWs)   bands (ev):

    -2.6486  -0.5935   2.3231   2.9310   8.6892   9.0994  11.3271  14.2088

          k =-0.0585-0.4095 0.6435 (  1411 PWs)   bands (ev):

    -2.1388  -1.0903   2.0175   2.7801   9.0308  10.2897  11.0486  12.4292

          k = 0.0000-0.3510 0.5850 (  1412 PWs)   bands (ev):

    -2.3660  -0.8634   1.8954   2.9996   9.3293  10.4618  10.9547  12.1802

          k =-0.7020 0.2340 0.0000 (  1406 PWs)   bands (ev):

    -1.6302  -1.6302   2.4463   2.4463   8.7605   8.7605  12.6919  12.6919

          k =-0.7020 0.3510-0.0000 (  1424 PWs)   bands (ev):

    -1.5889  -1.5889   2.2453   2.2453  10.2852  10.2852  10.9309  10.9309

     the Fermi energy is     6.3054 ev

!    total energy              =     -16.92524837 Ry
     estimated scf accuracy    <          9.7E-14 Ry
     smearing contrib. (-TS)   =      -0.00000020 Ry
     internal energy E=F+TS    =     -16.92524817 Ry

     The total energy is F=E-TS. E is the sum of the following terms:
     one-electron contribution =       4.80080172 Ry
     hartree contribution      =       1.11372768 Ry
     xc contribution           =      -6.16040377 Ry
     ewald contribution        =     -16.67937381 Ry

     convergence has been achieved in   8 iterations

     Forces acting on atoms (cartesian axes, Ry/au):

     atom    1 type  1   force =     0.00000000   -0.00000000    0.00000000
     atom    2 type  1   force =    -0.00000000    0.00000000   -0.00000000

     Total force =     0.000000     Total SCF correction =     0.000000


     Computing stress (Cartesian axis) and pressure

          total   stress  (Ry/bohr**3)                   (kbar)     P=        0.01
   0.00000003  -0.00000000  -0.00000000            0.01       -0.00       -0.00
  -0.00000000   0.00000003  -0.00000000           -0.00        0.01       -0.00
  -0.00000000  -0.00000000   0.00000003           -0.00       -0.00        0.01


     Writing all to output data dir ./pwscf.save/ :
     XML data file, charge density, pseudopotentials, collected wavefunctions

     init_run     :      4.52s CPU      2.34s WALL (       2 calls)
     electrons    :    304.47s CPU    153.10s WALL (       5 calls)
     update_pot   :      0.22s CPU      0.11s WALL (       3 calls)
     forces       :     15.54s CPU      7.83s WALL (       5 calls)
     stress       :      3.39s CPU      1.71s WALL (       5 calls)

     Called by init_run:
     wfcinit      :      4.17s CPU      2.10s WALL (       2 calls)
     potinit      :      0.05s CPU      0.03s WALL (       2 calls)
     hinit0       :      0.25s CPU      0.18s WALL (       2 calls)

     Called by electrons:
     c_bands      :    296.39s CPU    148.99s WALL (      33 calls)
     sum_band     :      7.82s CPU      3.98s WALL (      33 calls)
     v_of_rho     :      0.27s CPU      0.14s WALL (      34 calls)
     mix_rho      :      0.04s CPU      0.02s WALL (      33 calls)

     Called by c_bands:
     init_us_2    :      1.42s CPU      0.98s WALL (    5616 calls)
     cegterg      :    292.39s CPU    146.59s WALL (    2376 calls)

     Called by *egterg:
     cdiaghg      :      0.63s CPU      0.65s WALL (    8826 calls)
     h_psi        :    240.13s CPU    120.53s WALL (    9474 calls)
     g_psi        :      0.11s CPU      0.11s WALL (    6954 calls)

     Called by h_psi:
     h_psi:calbec :     69.87s CPU     33.04s WALL (    9474 calls)
     vloc_psi     :    153.08s CPU     79.21s WALL (    9474 calls)
                                        0.00s GPU  (    9474 calls)
     add_vuspsi   :      1.79s CPU      1.10s WALL (    9474 calls)

     General routines
     calbec       :     78.37s CPU     37.39s WALL (   15594 calls)
     fft          :      0.89s CPU      0.47s WALL (     467 calls)
     ffts         :      0.00s CPU      0.00s WALL (      33 calls)
     fftw         :    136.87s CPU     70.72s WALL (  127832 calls)

     Parallel routines

     PWSCF        :   5m28.43s CPU   2m45.25s WALL


   This run was terminated on:  22:15: 9   4Sep2026            

=------------------------------------------------------------------------------=
   JOB DONE.
=------------------------------------------------------------------------------=
