
     Program PWSCF v.7.5 starts on  2Sep2026 at 17:43: 7 

     This program is part of the open-source Quantum ESPRESSO suite
     for quantum simulation of materials; please cite
         "P. Giannozzi et al., J. Phys.:Condens. Matter 21 395502 (2009);
         "P. Giannozzi et al., J. Phys.:Condens. Matter 29 465901 (2017);
         "P. Giannozzi et al., J. Chem. Phys. 152 154105 (2020);
          URL http://www.quantum-espresso.org", 
     in publications or presentations arising from this work. More details at
     http://www.quantum-espresso.org/quote

     Parallel version (MPI & OpenMP), running on       4 processor cores
     Number of MPI processes:                 2
     Threads/MPI process:                     2

     MPI processes distributed on     1 nodes
     3599 MiB available memory on the printing compute node when the environment starts

     Waiting for input...
     Reading input from standard input

     Current dimensions of program PWSCF are:
     Max number of different atomic species (ntypx) = 10
     Max number of k-points (npk) =  40000
     Max angular momentum in pseudopotentials (lmaxx) =  4

     R & G space division:  proc/nbgrp/npool/nimage =       2
     Subspace diagonalization in iterative solution of the eigenvalue problem:
     a serial algorithm will be used


     Parallelization info
     --------------------
     sticks:   dense  smooth     PW     G-vecs:    dense   smooth      PW
     Min        1821     726    210                72215    18162    2883
     Max        1822     727    211                72216    18163    2886
     Sum        3643    1453    421               144431    36325    5769

     Using Slab Decomposition



     bravais-lattice index     =            2
     lattice parameter (alat)  =      10.2600  a.u.
     unit-cell volume          =     270.0114 (a.u.)^3
     number of atoms/cell      =            2
     number of atomic types    =            1
     number of electrons       =         8.00
     number of Kohn-Sham states=            8
     kinetic-energy cutoff     =     100.0000  Ry
     charge density cutoff     =    1000.0000  Ry
     scf convergence threshold =      1.0E-08
     mixing beta               =       0.7000
     number of iterations used =            8  plain     mixing
     Exchange-correlation= PBE
                           (   1   4   3   4   0   0   0)

     celldm(1)=  10.260000  celldm(2)=   0.000000  celldm(3)=   0.000000
     celldm(4)=   0.000000  celldm(5)=   0.000000  celldm(6)=   0.000000

     crystal axes: (cart. coord. in units of alat)
               a(1) = (  -0.500000   0.000000   0.500000 )  
               a(2) = (   0.000000   0.500000   0.500000 )  
               a(3) = (  -0.500000   0.500000   0.000000 )  

     reciprocal axes: (cart. coord. in units 2 pi/alat)
               b(1) = ( -1.000000 -1.000000  1.000000 )  
               b(2) = (  1.000000  1.000000  1.000000 )  
               b(3) = ( -1.000000  1.000000 -1.000000 )  


     PseudoPot. # 1 for Si read from file:
     ../Si.upf
     MD5 check sum: 02fab3f35e82123ef5bf1cb05d5b1a5e
     Pseudo is Norm-conserving + core correction, Zval =  4.0
     Generated using ONCVPSP code by D. R. Hamann
     Using radial grid of 1510 points,  6 beta functions with: 
                l(1) =   0
                l(2) =   0
                l(3) =   1
                l(4) =   1
                l(5) =   2
                l(6) =   2

     atomic species   valence    mass     pseudopotential
     Si                4.00    28.08550     Si( 1.00)

     48 Sym. Ops., with inversion, found (24 have fractional translation)



   Cartesian axes

     site n.     atom                  positions (alat units)
         1        Si     tau(   1) = (   0.0000000   0.0000000   0.0000000  )
         2        Si     tau(   2) = (  -0.2500000   0.2500000   0.2500000  )

     number of k points=    29  Gaussian smearing, width (Ry)=  0.0100
                       cart. coord. in units 2pi/alat
        k(    1) = (   0.0000000   0.0000000   0.0000000), wk =   0.0039062
        k(    2) = (  -0.1250000   0.1250000  -0.1250000), wk =   0.0312500
        k(    3) = (  -0.2500000   0.2500000  -0.2500000), wk =   0.0312500
        k(    4) = (  -0.3750000   0.3750000  -0.3750000), wk =   0.0312500
        k(    5) = (   0.5000000  -0.5000000   0.5000000), wk =   0.0156250
        k(    6) = (   0.0000000   0.2500000   0.0000000), wk =   0.0234375
        k(    7) = (  -0.1250000   0.3750000  -0.1250000), wk =   0.0937500
        k(    8) = (  -0.2500000   0.5000000  -0.2500000), wk =   0.0937500
        k(    9) = (   0.6250000  -0.3750000   0.6250000), wk =   0.0937500
        k(   10) = (   0.5000000  -0.2500000   0.5000000), wk =   0.0937500
        k(   11) = (   0.3750000  -0.1250000   0.3750000), wk =   0.0937500
        k(   12) = (   0.2500000   0.0000000   0.2500000), wk =   0.0468750
        k(   13) = (   0.0000000   0.5000000   0.0000000), wk =   0.0234375
        k(   14) = (  -0.1250000   0.6250000  -0.1250000), wk =   0.0937500
        k(   15) = (   0.7500000  -0.2500000   0.7500000), wk =   0.0937500
        k(   16) = (   0.6250000  -0.1250000   0.6250000), wk =   0.0937500
        k(   17) = (   0.5000000   0.0000000   0.5000000), wk =   0.0468750
        k(   18) = (   0.0000000   0.7500000   0.0000000), wk =   0.0234375
        k(   19) = (   0.8750000  -0.1250000   0.8750000), wk =   0.0937500
        k(   20) = (   0.7500000   0.0000000   0.7500000), wk =   0.0468750
        k(   21) = (   0.0000000  -1.0000000   0.0000000), wk =   0.0117188
        k(   22) = (  -0.2500000   0.5000000   0.0000000), wk =   0.0937500
        k(   23) = (   0.6250000  -0.3750000   0.8750000), wk =   0.1875000
        k(   24) = (   0.5000000  -0.2500000   0.7500000), wk =   0.0937500
        k(   25) = (   0.7500000  -0.2500000   1.0000000), wk =   0.0937500
        k(   26) = (   0.6250000  -0.1250000   0.8750000), wk =   0.1875000
        k(   27) = (   0.5000000   0.0000000   0.7500000), wk =   0.0937500
        k(   28) = (  -0.2500000  -1.0000000   0.0000000), wk =   0.0468750
        k(   29) = (  -0.5000000  -1.0000000   0.0000000), wk =   0.0234375

     Dense  grid:   144431 G-vectors     FFT dimensions: (  80,  80,  80)

     Smooth grid:    36325 G-vectors     FFT dimensions: (  48,  48,  48)

     Estimated max dynamical RAM per process >      60.46 MB

     Estimated total dynamical RAM >     120.92 MB

     Initial potential from superposition of free atoms

     starting charge       7.9988, renormalised to       8.0000
     Starting wfcs are    8 randomized atomic wfcs

     total cpu time spent up to now is        1.5 secs

     per-process dynamical memory:    55.5 Mb

     Self-consistent Calculation

     iteration #  1     ecut=   100.00 Ry     beta= 0.70
     Davidson diagonalization with overlap
     ethr =  1.00E-02,  avg # of iterations =  4.6

     Threshold (ethr) on eigenvalues was too large:
     Diagonalizing with lowered threshold

     Davidson diagonalization with overlap
     ethr =  6.57E-04,  avg # of iterations =  1.9

     total cpu time spent up to now is       10.0 secs

     total energy              =     -16.92219300 Ry
     estimated scf accuracy    <       0.05608107 Ry

     iteration #  2     ecut=   100.00 Ry     beta= 0.70
     Davidson diagonalization with overlap
     ethr =  7.01E-04,  avg # of iterations =  1.0

     total cpu time spent up to now is       12.4 secs

     total energy              =     -16.92448582 Ry
     estimated scf accuracy    <       0.00219744 Ry

     iteration #  3     ecut=   100.00 Ry     beta= 0.70
     Davidson diagonalization with overlap
     ethr =  2.75E-05,  avg # of iterations =  4.0

     total cpu time spent up to now is       16.1 secs

     total energy              =     -16.92460077 Ry
     estimated scf accuracy    <       0.00003892 Ry

     iteration #  4     ecut=   100.00 Ry     beta= 0.70
     Davidson diagonalization with overlap
     ethr =  4.87E-07,  avg # of iterations =  3.6

     total cpu time spent up to now is       20.8 secs

     total energy              =     -16.92461102 Ry
     estimated scf accuracy    <       0.00000024 Ry

     iteration #  5     ecut=   100.00 Ry     beta= 0.70
     Davidson diagonalization with overlap
     ethr =  3.00E-09,  avg # of iterations =  3.7

     total cpu time spent up to now is       24.6 secs

     total energy              =     -16.92461137 Ry
     estimated scf accuracy    <       0.00000002 Ry

     iteration #  6     ecut=   100.00 Ry     beta= 0.70
     Davidson diagonalization with overlap
     ethr =  1.96E-10,  avg # of iterations =  2.1

     total cpu time spent up to now is       28.0 secs

     End of self-consistent calculation

          k = 0.0000 0.0000 0.0000 (  4573 PWs)   bands (ev):

    -5.7305   6.2386   6.2386   6.2386   8.7944   8.7944   8.7944   9.5866

          k =-0.1250 0.1250-0.1250 (  4576 PWs)   bands (ev):

    -5.5264   4.6361   5.9485   5.9485   8.7325   9.2197   9.2197  10.9382

          k =-0.2500 0.2500-0.2500 (  4567 PWs)   bands (ev):

    -4.9307   2.3058   5.4766   5.4766   8.2595   9.7392   9.7392  13.1492

          k =-0.3750 0.3750-0.3750 (  4564 PWs)   bands (ev):

    -4.0369   0.2847   5.1489   5.1489   7.8964   9.6859   9.6859  14.1232

          k = 0.5000-0.5000 0.5000 (  4512 PWs)   bands (ev):

    -3.3988  -0.7382   5.0369   5.0369   7.7685   9.5752   9.5752  13.9705

          k = 0.0000 0.2500 0.0000 (  4577 PWs)   bands (ev):

    -5.4576   4.9013   5.4294   5.4294   8.2443   9.9373   9.9374  10.6237

          k =-0.1250 0.3750-0.1250 (  4576 PWs)   bands (ev):

    -4.9889   3.0091   4.9168   4.9929   8.3822   9.9383  10.7027  10.9906

          k =-0.2500 0.5000-0.2500 (  4583 PWs)   bands (ev):

    -4.1738   0.9474   4.4005   4.6483   8.4817   9.8748  10.7002  11.7072

          k = 0.6250-0.3750 0.6250 (  4543 PWs)   bands (ev):

    -3.3121  -0.5167   3.9544   4.6729   8.4276   9.7505  10.3366  13.6079

          k = 0.5000-0.2500 0.5000 (  4563 PWs)   bands (ev):

    -3.5568  -0.1459   3.7725   4.9698   8.5931   9.8605  10.1036  14.1523

          k = 0.3750-0.1250 0.3750 (  4573 PWs)   bands (ev):

    -4.4802   1.6070   3.9235   5.4624   8.9506   9.9099  10.0943  12.5339

          k = 0.2500 0.0000 0.2500 (  4561 PWs)   bands (ev):

    -5.1901   3.5497   4.6064   5.9447   9.2716   9.3555   9.5969  11.7811

          k = 0.0000 0.5000 0.0000 (  4584 PWs)   bands (ev):

    -4.6485   2.7159   4.3448   4.3448   7.3643   9.3699  11.9924  11.9924

          k =-0.1250 0.6250-0.1250 (  4569 PWs)   bands (ev):

    -3.9384   1.2915   3.5634   4.0262   7.5859   9.1319  12.2326  12.5052

          k = 0.7500-0.2500 0.7500 (  4555 PWs)   bands (ev):

    -3.0121  -0.1510   2.6993   4.0294   7.7555  10.6876  11.9787  12.1560

          k = 0.6250-0.1250 0.6250 (  4549 PWs)   bands (ev):

    -2.8078  -0.4095   2.2405   4.3482   8.0796  11.7048  11.7154  13.1960

          k = 0.5000 0.0000 0.5000 (  4564 PWs)   bands (ev):

    -3.6865   0.7518   2.4808   4.9076   8.6839  11.0216  11.3750  12.3782

          k = 0.0000 0.7500 0.0000 (  4572 PWs)   bands (ev):

    -3.3358   0.4867   3.6274   3.6274   6.8502   7.7766  14.2755  14.2755

          k = 0.8750-0.1250 0.8750 (  4553 PWs)   bands (ev):

    -2.4383  -0.5986   2.7978   3.5512   7.1303   8.2042  14.5011  14.5883

          k = 0.7500 0.0000 0.7500 (  4538 PWs)   bands (ev):

    -1.9993  -0.9954   1.9314   3.8090   7.4397  10.3673  13.7006  14.4625

          k = 0.0000-1.0000 0.0000 (  4568 PWs)   bands (ev):

    -1.5855  -1.5855   3.3815   3.3815   6.9457   6.9457  16.3326  16.3326

          k =-0.2500 0.5000 0.0000 (  4563 PWs)   bands (ev):

    -4.4010   1.9431   3.5210   4.8076   8.6826  10.1332  10.4348  11.7380

          k = 0.6250-0.3750 0.8750 (  4560 PWs)   bands (ev):

    -3.5125   0.3905   2.9126   4.3055   9.1131   9.7902  11.2557  12.1739

          k = 0.5000-0.2500 0.7500 (  4546 PWs)   bands (ev):

    -2.8600  -0.5550   2.7836   4.0755   9.3010   9.3706  12.1476  13.3596

          k = 0.7500-0.2500 1.0000 (  4586 PWs)   bands (ev):

    -3.1371   0.2677   2.8714   3.4749   8.1831   8.8840  11.9896  14.2253

          k = 0.6250-0.1250 0.8750 (  4551 PWs)   bands (ev):

    -2.2621  -0.7006   2.1729   3.2740   8.6251  10.5209  11.5112  13.6748

          k = 0.5000 0.0000 0.7500 (  4543 PWs)   bands (ev):

    -2.6128  -0.3373   2.0059   3.6503   9.1050  10.7823  11.4513  13.2678

          k =-0.2500-1.0000 0.0000 (  4568 PWs)   bands (ev):

    -1.5075  -1.5075   2.8169   2.8169   8.2073   8.2073  14.0819  14.0819

          k =-0.5000-1.0000 0.0000 (  4540 PWs)   bands (ev):

    -1.4216  -1.4216   2.3808   2.3808  10.5113  10.5113  11.2351  11.2351

     the Fermi energy is     6.5345 ev

!    total energy              =     -16.92461137 Ry
     estimated scf accuracy    <          3.1E-10 Ry
     smearing contrib. (-TS)   =      -0.00000060 Ry
     internal energy E=F+TS    =     -16.92461077 Ry

     The total energy is F=E-TS. E is the sum of the following terms:
     one-electron contribution =       4.96575411 Ry
     hartree contribution      =       1.09552838 Ry
     xc contribution           =      -6.18496368 Ry
     ewald contribution        =     -16.80092957 Ry

     convergence has been achieved in   6 iterations

     Writing all to output data dir ./tmp/si.save/ :
     XML data file, charge density, pseudopotentials, collected wavefunctions

     init_run     :      2.39s CPU      1.45s WALL (       1 calls)
     electrons    :     52.68s CPU     26.54s WALL (       1 calls)

     Called by init_run:
     wfcinit      :      1.61s CPU      0.81s WALL (       1 calls)
     potinit      :      0.39s CPU      0.28s WALL (       1 calls)
     hinit0       :      0.34s CPU      0.32s WALL (       1 calls)

     Called by electrons:
     c_bands      :     49.13s CPU     24.70s WALL (       7 calls)
     sum_band     :      2.30s CPU      1.16s WALL (       7 calls)
     v_of_rho     :      1.20s CPU      0.66s WALL (       7 calls)
     mix_rho      :      0.09s CPU      0.05s WALL (       7 calls)

     Called by c_bands:
     init_us_2    :      0.59s CPU      0.27s WALL (     435 calls)
     cegterg      :     47.89s CPU     24.09s WALL (     203 calls)

     Called by *egterg:
     cdiaghg      :      0.09s CPU      0.08s WALL (     779 calls)
     h_psi        :     40.46s CPU     20.43s WALL (     837 calls)
     g_psi        :      0.03s CPU      0.03s WALL (     605 calls)

     Called by h_psi:
     h_psi:calbec :      7.71s CPU      3.83s WALL (     837 calls)
     vloc_psi     :     31.28s CPU     15.83s WALL (     837 calls)
                                        0.00s GPU  (     837 calls)
     add_vuspsi   :      0.47s CPU      0.28s WALL (     837 calls)

     General routines
     calbec       :      7.70s CPU      3.83s WALL (     837 calls)
     fft          :      0.73s CPU      0.50s WALL (      83 calls)
     ffts         :      0.19s CPU      0.16s WALL (      14 calls)
     fftw         :     29.87s CPU     15.05s WALL (   10918 calls)
     interpolate  :      0.25s CPU      0.19s WALL (       7 calls)

     Parallel routines

     PWSCF        :     55.14s CPU     28.06s WALL


   This run was terminated on:  17:43:35   2Sep2026            

=------------------------------------------------------------------------------=
   JOB DONE.
=------------------------------------------------------------------------------=
