
     Program PWSCF v.7.5 starts on  2Sep2026 at 17:41:34 

     This program is part of the open-source Quantum ESPRESSO suite
     for quantum simulation of materials; please cite
         "P. Giannozzi et al., J. Phys.:Condens. Matter 21 395502 (2009);
         "P. Giannozzi et al., J. Phys.:Condens. Matter 29 465901 (2017);
         "P. Giannozzi et al., J. Chem. Phys. 152 154105 (2020);
          URL http://www.quantum-espresso.org", 
     in publications or presentations arising from this work. More details at
     http://www.quantum-espresso.org/quote

     Parallel version (MPI & OpenMP), running on       4 processor cores
     Number of MPI processes:                 2
     Threads/MPI process:                     2

     MPI processes distributed on     1 nodes
     3665 MiB available memory on the printing compute node when the environment starts

     Waiting for input...
     Reading input from standard input

     Current dimensions of program PWSCF are:
     Max number of different atomic species (ntypx) = 10
     Max number of k-points (npk) =  40000
     Max angular momentum in pseudopotentials (lmaxx) =  4

     R & G space division:  proc/nbgrp/npool/nimage =       2
     Subspace diagonalization in iterative solution of the eigenvalue problem:
     a serial algorithm will be used


     Parallelization info
     --------------------
     sticks:   dense  smooth     PW     G-vecs:    dense   smooth      PW
     Min         534     216     75                11750     2980     569
     Max         535     217     76                11755     2981     570
     Sum        1069     433    151                23505     5961    1139

     Using Slab Decomposition



     bravais-lattice index     =            2
     lattice parameter (alat)  =      10.2600  a.u.
     unit-cell volume          =     270.0114 (a.u.)^3
     number of atoms/cell      =            2
     number of atomic types    =            1
     number of electrons       =         8.00
     number of Kohn-Sham states=            8
     kinetic-energy cutoff     =      30.0000  Ry
     charge density cutoff     =     300.0000  Ry
     scf convergence threshold =      1.0E-08
     mixing beta               =       0.7000
     number of iterations used =            8  plain     mixing
     Exchange-correlation= PBE
                           (   1   4   3   4   0   0   0)

     celldm(1)=  10.260000  celldm(2)=   0.000000  celldm(3)=   0.000000
     celldm(4)=   0.000000  celldm(5)=   0.000000  celldm(6)=   0.000000

     crystal axes: (cart. coord. in units of alat)
               a(1) = (  -0.500000   0.000000   0.500000 )  
               a(2) = (   0.000000   0.500000   0.500000 )  
               a(3) = (  -0.500000   0.500000   0.000000 )  

     reciprocal axes: (cart. coord. in units 2 pi/alat)
               b(1) = ( -1.000000 -1.000000  1.000000 )  
               b(2) = (  1.000000  1.000000  1.000000 )  
               b(3) = ( -1.000000  1.000000 -1.000000 )  


     PseudoPot. # 1 for Si read from file:
     ../Si.upf
     MD5 check sum: 02fab3f35e82123ef5bf1cb05d5b1a5e
     Pseudo is Norm-conserving + core correction, Zval =  4.0
     Generated using ONCVPSP code by D. R. Hamann
     Using radial grid of 1510 points,  6 beta functions with: 
                l(1) =   0
                l(2) =   0
                l(3) =   1
                l(4) =   1
                l(5) =   2
                l(6) =   2

     atomic species   valence    mass     pseudopotential
     Si                4.00    28.08550     Si( 1.00)

     48 Sym. Ops., with inversion, found (24 have fractional translation)



   Cartesian axes

     site n.     atom                  positions (alat units)
         1        Si     tau(   1) = (   0.0000000   0.0000000   0.0000000  )
         2        Si     tau(   2) = (  -0.2500000   0.2500000   0.2500000  )

     number of k points=    29  Gaussian smearing, width (Ry)=  0.0100
                       cart. coord. in units 2pi/alat
        k(    1) = (   0.0000000   0.0000000   0.0000000), wk =   0.0039062
        k(    2) = (  -0.1250000   0.1250000  -0.1250000), wk =   0.0312500
        k(    3) = (  -0.2500000   0.2500000  -0.2500000), wk =   0.0312500
        k(    4) = (  -0.3750000   0.3750000  -0.3750000), wk =   0.0312500
        k(    5) = (   0.5000000  -0.5000000   0.5000000), wk =   0.0156250
        k(    6) = (   0.0000000   0.2500000   0.0000000), wk =   0.0234375
        k(    7) = (  -0.1250000   0.3750000  -0.1250000), wk =   0.0937500
        k(    8) = (  -0.2500000   0.5000000  -0.2500000), wk =   0.0937500
        k(    9) = (   0.6250000  -0.3750000   0.6250000), wk =   0.0937500
        k(   10) = (   0.5000000  -0.2500000   0.5000000), wk =   0.0937500
        k(   11) = (   0.3750000  -0.1250000   0.3750000), wk =   0.0937500
        k(   12) = (   0.2500000   0.0000000   0.2500000), wk =   0.0468750
        k(   13) = (   0.0000000   0.5000000   0.0000000), wk =   0.0234375
        k(   14) = (  -0.1250000   0.6250000  -0.1250000), wk =   0.0937500
        k(   15) = (   0.7500000  -0.2500000   0.7500000), wk =   0.0937500
        k(   16) = (   0.6250000  -0.1250000   0.6250000), wk =   0.0937500
        k(   17) = (   0.5000000   0.0000000   0.5000000), wk =   0.0468750
        k(   18) = (   0.0000000   0.7500000   0.0000000), wk =   0.0234375
        k(   19) = (   0.8750000  -0.1250000   0.8750000), wk =   0.0937500
        k(   20) = (   0.7500000   0.0000000   0.7500000), wk =   0.0468750
        k(   21) = (   0.0000000  -1.0000000   0.0000000), wk =   0.0117188
        k(   22) = (  -0.2500000   0.5000000   0.0000000), wk =   0.0937500
        k(   23) = (   0.6250000  -0.3750000   0.8750000), wk =   0.1875000
        k(   24) = (   0.5000000  -0.2500000   0.7500000), wk =   0.0937500
        k(   25) = (   0.7500000  -0.2500000   1.0000000), wk =   0.0937500
        k(   26) = (   0.6250000  -0.1250000   0.8750000), wk =   0.1875000
        k(   27) = (   0.5000000   0.0000000   0.7500000), wk =   0.0937500
        k(   28) = (  -0.2500000  -1.0000000   0.0000000), wk =   0.0468750
        k(   29) = (  -0.5000000  -1.0000000   0.0000000), wk =   0.0234375

     Dense  grid:    23505 G-vectors     FFT dimensions: (  40,  40,  40)

     Smooth grid:     5961 G-vectors     FFT dimensions: (  32,  32,  32)

     Estimated max dynamical RAM per process >      10.18 MB

     Estimated total dynamical RAM >      20.37 MB

     Initial potential from superposition of free atoms

     starting charge       7.9988, renormalised to       8.0000
     Starting wfcs are    8 randomized atomic wfcs

     total cpu time spent up to now is        0.6 secs

     per-process dynamical memory:    14.8 Mb

     Self-consistent Calculation

     iteration #  1     ecut=    30.00 Ry     beta= 0.70
     Davidson diagonalization with overlap
     ethr =  1.00E-02,  avg # of iterations =  4.5

     Threshold (ethr) on eigenvalues was too large:
     Diagonalizing with lowered threshold

     Davidson diagonalization with overlap
     ethr =  6.56E-04,  avg # of iterations =  1.7

     total cpu time spent up to now is        4.1 secs

     total energy              =     -16.92193499 Ry
     estimated scf accuracy    <       0.05622998 Ry

     iteration #  2     ecut=    30.00 Ry     beta= 0.70
     Davidson diagonalization with overlap
     ethr =  7.03E-04,  avg # of iterations =  1.0

     total cpu time spent up to now is        5.0 secs

     total energy              =     -16.92422014 Ry
     estimated scf accuracy    <       0.00218343 Ry

     iteration #  3     ecut=    30.00 Ry     beta= 0.70
     Davidson diagonalization with overlap
     ethr =  2.73E-05,  avg # of iterations =  4.1

     total cpu time spent up to now is        6.4 secs

     total energy              =     -16.92432936 Ry
     estimated scf accuracy    <       0.00003944 Ry

     iteration #  4     ecut=    30.00 Ry     beta= 0.70
     Davidson diagonalization with overlap
     ethr =  4.93E-07,  avg # of iterations =  3.7

     total cpu time spent up to now is        7.9 secs

     total energy              =     -16.92433836 Ry
     estimated scf accuracy    <       0.00000027 Ry

     iteration #  5     ecut=    30.00 Ry     beta= 0.70
     Davidson diagonalization with overlap
     ethr =  3.39E-09,  avg # of iterations =  3.4

     total cpu time spent up to now is        9.2 secs

     total energy              =     -16.92433867 Ry
     estimated scf accuracy    <       0.00000002 Ry

     iteration #  6     ecut=    30.00 Ry     beta= 0.70
     Davidson diagonalization with overlap
     ethr =  2.63E-10,  avg # of iterations =  2.0

     total cpu time spent up to now is       10.6 secs

     End of self-consistent calculation

          k = 0.0000 0.0000 0.0000 (   725 PWs)   bands (ev):

    -5.7307   6.2398   6.2398   6.2398   8.7961   8.7961   8.7961   9.5902

          k =-0.1250 0.1250-0.1250 (   743 PWs)   bands (ev):

    -5.5265   4.6367   5.9495   5.9495   8.7346   9.2216   9.2216  10.9413

          k =-0.2500 0.2500-0.2500 (   754 PWs)   bands (ev):

    -4.9309   2.3061   5.4772   5.4772   8.2617   9.7414   9.7414  13.1530

          k =-0.3750 0.3750-0.3750 (   763 PWs)   bands (ev):

    -4.0369   0.2848   5.1493   5.1493   7.8982   9.6878   9.6878  14.1248

          k = 0.5000-0.5000 0.5000 (   754 PWs)   bands (ev):

    -3.3988  -0.7382   5.0372   5.0372   7.7704   9.5772   9.5772  13.9721

          k = 0.0000 0.2500 0.0000 (   745 PWs)   bands (ev):

    -5.4577   4.9023   5.4301   5.4301   8.2459   9.9395   9.9395  10.6269

          k =-0.1250 0.3750-0.1250 (   757 PWs)   bands (ev):

    -4.9890   3.0094   4.9172   4.9934   8.3839   9.9406  10.7053  10.9934

          k =-0.2500 0.5000-0.2500 (   746 PWs)   bands (ev):

    -4.1739   0.9475   4.4010   4.6487   8.4837   9.8773  10.7033  11.7106

          k = 0.6250-0.3750 0.6250 (   753 PWs)   bands (ev):

    -3.3122  -0.5166   3.9547   4.6732   8.4295   9.7528  10.3392  13.6116

          k = 0.5000-0.2500 0.5000 (   750 PWs)   bands (ev):

    -3.5568  -0.1458   3.7728   4.9702   8.5952   9.8629  10.1061  14.1556

          k = 0.3750-0.1250 0.3750 (   748 PWs)   bands (ev):

    -4.4803   1.6071   3.9238   5.4630   8.9529   9.9122  10.0971  12.5374

          k = 0.2500 0.0000 0.2500 (   753 PWs)   bands (ev):

    -5.1903   3.5501   4.6068   5.9455   9.2740   9.3574   9.5994  11.7847

          k = 0.0000 0.5000 0.0000 (   729 PWs)   bands (ev):

    -4.6485   2.7164   4.3451   4.3451   7.3659   9.3725  11.9964  11.9964

          k =-0.1250 0.6250-0.1250 (   751 PWs)   bands (ev):

    -3.9384   1.2917   3.5636   4.0264   7.5875   9.1339  12.2364  12.5093

          k = 0.7500-0.2500 0.7500 (   748 PWs)   bands (ev):

    -3.0122  -0.1509   2.6995   4.0296   7.7570  10.6904  11.9824  12.1598

          k = 0.6250-0.1250 0.6250 (   744 PWs)   bands (ev):

    -2.8078  -0.4094   2.2406   4.3485   8.0814  11.7088  11.7185  13.1996

          k = 0.5000 0.0000 0.5000 (   754 PWs)   bands (ev):

    -3.6866   0.7519   2.4809   4.9079   8.6859  11.0242  11.3786  12.3813

          k = 0.0000 0.7500 0.0000 (   753 PWs)   bands (ev):

    -3.3358   0.4868   3.6275   3.6275   6.8515   7.7782  14.2803  14.2803

          k = 0.8750-0.1250 0.8750 (   747 PWs)   bands (ev):

    -2.4383  -0.5986   2.7979   3.5512   7.1318   8.2061  14.5060  14.5934

          k = 0.7500 0.0000 0.7500 (   740 PWs)   bands (ev):

    -1.9993  -0.9953   1.9315   3.8091   7.4411  10.3699  13.7046  14.4662

          k = 0.0000-1.0000 0.0000 (   740 PWs)   bands (ev):

    -1.5855  -1.5855   3.3816   3.3816   6.9473   6.9473  16.3374  16.3374

          k =-0.2500 0.5000 0.0000 (   755 PWs)   bands (ev):

    -4.4011   1.9434   3.5212   4.8079   8.6844  10.1357  10.4373  11.7414

          k = 0.6250-0.3750 0.8750 (   747 PWs)   bands (ev):

    -3.5126   0.3906   2.9128   4.3057   9.1153   9.7927  11.2588  12.1780

          k = 0.5000-0.2500 0.7500 (   750 PWs)   bands (ev):

    -2.8600  -0.5549   2.7838   4.0757   9.3034   9.3727  12.1513  13.3640

          k = 0.7500-0.2500 1.0000 (   755 PWs)   bands (ev):

    -3.1372   0.2678   2.8715   3.4750   8.1848   8.8860  11.9932  14.2301

          k = 0.6250-0.1250 0.8750 (   748 PWs)   bands (ev):

    -2.2621  -0.7005   2.1730   3.2741   8.6271  10.5236  11.5143  13.6790

          k = 0.5000 0.0000 0.7500 (   747 PWs)   bands (ev):

    -2.6128  -0.3372   2.0060   3.6504   9.1070  10.7851  11.4543  13.2722

          k =-0.2500-1.0000 0.0000 (   742 PWs)   bands (ev):

    -1.5075  -1.5075   2.8170   2.8170   8.2093   8.2093  14.0866  14.0866

          k =-0.5000-1.0000 0.0000 (   744 PWs)   bands (ev):

    -1.4215  -1.4215   2.3809   2.3809  10.5143  10.5143  11.2381  11.2381

     the Fermi energy is     6.5357 ev

!    total energy              =     -16.92433868 Ry
     estimated scf accuracy    <          4.0E-10 Ry
     smearing contrib. (-TS)   =      -0.00000060 Ry
     internal energy E=F+TS    =     -16.92433808 Ry

     The total energy is F=E-TS. E is the sum of the following terms:
     one-electron contribution =       4.96605174 Ry
     hartree contribution      =       1.09537167 Ry
     xc contribution           =      -6.18483191 Ry
     ewald contribution        =     -16.80092957 Ry

     convergence has been achieved in   6 iterations

     Writing all to output data dir ./tmp/si.save/ :
     XML data file, charge density, pseudopotentials, collected wavefunctions

     init_run     :      1.02s CPU      0.62s WALL (       1 calls)
     electrons    :     19.82s CPU      9.96s WALL (       1 calls)

     Called by init_run:
     wfcinit      :      0.67s CPU      0.34s WALL (       1 calls)
     potinit      :      0.12s CPU      0.09s WALL (       1 calls)
     hinit0       :      0.20s CPU      0.17s WALL (       1 calls)

     Called by electrons:
     c_bands      :     18.97s CPU      9.53s WALL (       7 calls)
     sum_band     :      0.65s CPU      0.33s WALL (       7 calls)
     v_of_rho     :      0.19s CPU      0.10s WALL (       7 calls)
     mix_rho      :      0.01s CPU      0.01s WALL (       7 calls)

     Called by c_bands:
     init_us_2    :      0.08s CPU      0.04s WALL (     435 calls)
     cegterg      :     18.86s CPU      9.44s WALL (     203 calls)

     Called by *egterg:
     cdiaghg      :      0.06s CPU      0.05s WALL (     763 calls)
     h_psi        :     15.87s CPU      7.95s WALL (     821 calls)
     g_psi        :      0.01s CPU      0.00s WALL (     589 calls)

     Called by h_psi:
     h_psi:calbec :      4.74s CPU      2.22s WALL (     821 calls)
     vloc_psi     :      9.99s CPU      5.18s WALL (     821 calls)
                                        0.00s GPU  (     821 calls)
     add_vuspsi   :      0.10s CPU      0.07s WALL (     821 calls)

     General routines
     calbec       :      4.74s CPU      2.22s WALL (     821 calls)
     fft          :      0.27s CPU      0.19s WALL (      83 calls)
     ffts         :      0.09s CPU      0.07s WALL (      14 calls)
     fftw         :      9.51s CPU      4.91s WALL (   10806 calls)
     interpolate  :      0.09s CPU      0.07s WALL (       7 calls)

     Parallel routines

     PWSCF        :     20.94s CPU     10.65s WALL


   This run was terminated on:  17:41:45   2Sep2026            

=------------------------------------------------------------------------------=
   JOB DONE.
=------------------------------------------------------------------------------=
