
     Program PWSCF v.7.5 starts on  2Sep2026 at 17:41:47 

     This program is part of the open-source Quantum ESPRESSO suite
     for quantum simulation of materials; please cite
         "P. Giannozzi et al., J. Phys.:Condens. Matter 21 395502 (2009);
         "P. Giannozzi et al., J. Phys.:Condens. Matter 29 465901 (2017);
         "P. Giannozzi et al., J. Chem. Phys. 152 154105 (2020);
          URL http://www.quantum-espresso.org", 
     in publications or presentations arising from this work. More details at
     http://www.quantum-espresso.org/quote

     Parallel version (MPI & OpenMP), running on       4 processor cores
     Number of MPI processes:                 2
     Threads/MPI process:                     2

     MPI processes distributed on     1 nodes
     3645 MiB available memory on the printing compute node when the environment starts

     Waiting for input...
     Reading input from standard input

     Current dimensions of program PWSCF are:
     Max number of different atomic species (ntypx) = 10
     Max number of k-points (npk) =  40000
     Max angular momentum in pseudopotentials (lmaxx) =  4

     R & G space division:  proc/nbgrp/npool/nimage =       2
     Subspace diagonalization in iterative solution of the eigenvalue problem:
     a serial algorithm will be used


     Parallelization info
     --------------------
     sticks:   dense  smooth     PW     G-vecs:    dense   smooth      PW
     Min         726     291     93                18162     4628     819
     Max         727     292     94                18163     4629     820
     Sum        1453     583    187                36325     9257    1639

     Using Slab Decomposition



     bravais-lattice index     =            2
     lattice parameter (alat)  =      10.2600  a.u.
     unit-cell volume          =     270.0114 (a.u.)^3
     number of atoms/cell      =            2
     number of atomic types    =            1
     number of electrons       =         8.00
     number of Kohn-Sham states=            8
     kinetic-energy cutoff     =      40.0000  Ry
     charge density cutoff     =     400.0000  Ry
     scf convergence threshold =      1.0E-08
     mixing beta               =       0.7000
     number of iterations used =            8  plain     mixing
     Exchange-correlation= PBE
                           (   1   4   3   4   0   0   0)

     celldm(1)=  10.260000  celldm(2)=   0.000000  celldm(3)=   0.000000
     celldm(4)=   0.000000  celldm(5)=   0.000000  celldm(6)=   0.000000

     crystal axes: (cart. coord. in units of alat)
               a(1) = (  -0.500000   0.000000   0.500000 )  
               a(2) = (   0.000000   0.500000   0.500000 )  
               a(3) = (  -0.500000   0.500000   0.000000 )  

     reciprocal axes: (cart. coord. in units 2 pi/alat)
               b(1) = ( -1.000000 -1.000000  1.000000 )  
               b(2) = (  1.000000  1.000000  1.000000 )  
               b(3) = ( -1.000000  1.000000 -1.000000 )  


     PseudoPot. # 1 for Si read from file:
     ../Si.upf
     MD5 check sum: 02fab3f35e82123ef5bf1cb05d5b1a5e
     Pseudo is Norm-conserving + core correction, Zval =  4.0
     Generated using ONCVPSP code by D. R. Hamann
     Using radial grid of 1510 points,  6 beta functions with: 
                l(1) =   0
                l(2) =   0
                l(3) =   1
                l(4) =   1
                l(5) =   2
                l(6) =   2

     atomic species   valence    mass     pseudopotential
     Si                4.00    28.08550     Si( 1.00)

     48 Sym. Ops., with inversion, found (24 have fractional translation)



   Cartesian axes

     site n.     atom                  positions (alat units)
         1        Si     tau(   1) = (   0.0000000   0.0000000   0.0000000  )
         2        Si     tau(   2) = (  -0.2500000   0.2500000   0.2500000  )

     number of k points=    29  Gaussian smearing, width (Ry)=  0.0100
                       cart. coord. in units 2pi/alat
        k(    1) = (   0.0000000   0.0000000   0.0000000), wk =   0.0039062
        k(    2) = (  -0.1250000   0.1250000  -0.1250000), wk =   0.0312500
        k(    3) = (  -0.2500000   0.2500000  -0.2500000), wk =   0.0312500
        k(    4) = (  -0.3750000   0.3750000  -0.3750000), wk =   0.0312500
        k(    5) = (   0.5000000  -0.5000000   0.5000000), wk =   0.0156250
        k(    6) = (   0.0000000   0.2500000   0.0000000), wk =   0.0234375
        k(    7) = (  -0.1250000   0.3750000  -0.1250000), wk =   0.0937500
        k(    8) = (  -0.2500000   0.5000000  -0.2500000), wk =   0.0937500
        k(    9) = (   0.6250000  -0.3750000   0.6250000), wk =   0.0937500
        k(   10) = (   0.5000000  -0.2500000   0.5000000), wk =   0.0937500
        k(   11) = (   0.3750000  -0.1250000   0.3750000), wk =   0.0937500
        k(   12) = (   0.2500000   0.0000000   0.2500000), wk =   0.0468750
        k(   13) = (   0.0000000   0.5000000   0.0000000), wk =   0.0234375
        k(   14) = (  -0.1250000   0.6250000  -0.1250000), wk =   0.0937500
        k(   15) = (   0.7500000  -0.2500000   0.7500000), wk =   0.0937500
        k(   16) = (   0.6250000  -0.1250000   0.6250000), wk =   0.0937500
        k(   17) = (   0.5000000   0.0000000   0.5000000), wk =   0.0468750
        k(   18) = (   0.0000000   0.7500000   0.0000000), wk =   0.0234375
        k(   19) = (   0.8750000  -0.1250000   0.8750000), wk =   0.0937500
        k(   20) = (   0.7500000   0.0000000   0.7500000), wk =   0.0468750
        k(   21) = (   0.0000000  -1.0000000   0.0000000), wk =   0.0117188
        k(   22) = (  -0.2500000   0.5000000   0.0000000), wk =   0.0937500
        k(   23) = (   0.6250000  -0.3750000   0.8750000), wk =   0.1875000
        k(   24) = (   0.5000000  -0.2500000   0.7500000), wk =   0.0937500
        k(   25) = (   0.7500000  -0.2500000   1.0000000), wk =   0.0937500
        k(   26) = (   0.6250000  -0.1250000   0.8750000), wk =   0.1875000
        k(   27) = (   0.5000000   0.0000000   0.7500000), wk =   0.0937500
        k(   28) = (  -0.2500000  -1.0000000   0.0000000), wk =   0.0468750
        k(   29) = (  -0.5000000  -1.0000000   0.0000000), wk =   0.0234375

     Dense  grid:    36325 G-vectors     FFT dimensions: (  48,  48,  48)

     Smooth grid:     9257 G-vectors     FFT dimensions: (  32,  32,  32)

     Estimated max dynamical RAM per process >      15.58 MB

     Estimated total dynamical RAM >      31.16 MB

     Initial potential from superposition of free atoms

     starting charge       7.9988, renormalised to       8.0000
     Starting wfcs are    8 randomized atomic wfcs

     total cpu time spent up to now is        0.8 secs

     per-process dynamical memory:    18.6 Mb

     Self-consistent Calculation

     iteration #  1     ecut=    40.00 Ry     beta= 0.70
     Davidson diagonalization with overlap
     ethr =  1.00E-02,  avg # of iterations =  4.5

     Threshold (ethr) on eigenvalues was too large:
     Diagonalizing with lowered threshold

     Davidson diagonalization with overlap
     ethr =  6.56E-04,  avg # of iterations =  1.7

     total cpu time spent up to now is        4.4 secs

     total energy              =     -16.92214208 Ry
     estimated scf accuracy    <       0.05622033 Ry

     iteration #  2     ecut=    40.00 Ry     beta= 0.70
     Davidson diagonalization with overlap
     ethr =  7.03E-04,  avg # of iterations =  1.0

     total cpu time spent up to now is        5.5 secs

     total energy              =     -16.92444288 Ry
     estimated scf accuracy    <       0.00218304 Ry

     iteration #  3     ecut=    40.00 Ry     beta= 0.70
     Davidson diagonalization with overlap
     ethr =  2.73E-05,  avg # of iterations =  4.1

     total cpu time spent up to now is        7.0 secs

     total energy              =     -16.92455486 Ry
     estimated scf accuracy    <       0.00003942 Ry

     iteration #  4     ecut=    40.00 Ry     beta= 0.70
     Davidson diagonalization with overlap
     ethr =  4.93E-07,  avg # of iterations =  3.9

     total cpu time spent up to now is        8.9 secs

     total energy              =     -16.92456430 Ry
     estimated scf accuracy    <       0.00000025 Ry

     iteration #  5     ecut=    40.00 Ry     beta= 0.70
     Davidson diagonalization with overlap
     ethr =  3.17E-09,  avg # of iterations =  3.5

     total cpu time spent up to now is       10.7 secs

     total energy              =     -16.92456463 Ry
     estimated scf accuracy    <       0.00000002 Ry

     iteration #  6     ecut=    40.00 Ry     beta= 0.70
     Davidson diagonalization with overlap
     ethr =  2.39E-10,  avg # of iterations =  2.0

     total cpu time spent up to now is       11.8 secs

     End of self-consistent calculation

          k = 0.0000 0.0000 0.0000 (  1139 PWs)   bands (ev):

    -5.7305   6.2387   6.2387   6.2387   8.7945   8.7945   8.7945   9.5875

          k =-0.1250 0.1250-0.1250 (  1173 PWs)   bands (ev):

    -5.5263   4.6362   5.9486   5.9486   8.7327   9.2198   9.2198  10.9387

          k =-0.2500 0.2500-0.2500 (  1152 PWs)   bands (ev):

    -4.9307   2.3059   5.4767   5.4767   8.2597   9.7393   9.7393  13.1498

          k =-0.3750 0.3750-0.3750 (  1155 PWs)   bands (ev):

    -4.0368   0.2848   5.1490   5.1490   7.8966   9.6860   9.6860  14.1234

          k = 0.5000-0.5000 0.5000 (  1158 PWs)   bands (ev):

    -3.3987  -0.7381   5.0370   5.0370   7.7687   9.5753   9.5753  13.9706

          k = 0.0000 0.2500 0.0000 (  1163 PWs)   bands (ev):

    -5.4575   4.9014   5.4295   5.4295   8.2444   9.9375   9.9375  10.6242

          k =-0.1250 0.3750-0.1250 (  1155 PWs)   bands (ev):

    -4.9888   3.0092   4.9169   4.9930   8.3823   9.9385  10.7029  10.9907

          k =-0.2500 0.5000-0.2500 (  1151 PWs)   bands (ev):

    -4.1737   0.9475   4.4006   4.6484   8.4818   9.8750  10.7004  11.7073

          k = 0.6250-0.3750 0.6250 (  1154 PWs)   bands (ev):

    -3.3121  -0.5166   3.9545   4.6729   8.4278   9.7507  10.3367  13.6082

          k = 0.5000-0.2500 0.5000 (  1151 PWs)   bands (ev):

    -3.5567  -0.1458   3.7726   4.9699   8.5933   9.8606  10.1037  14.1527

          k = 0.3750-0.1250 0.3750 (  1151 PWs)   bands (ev):

    -4.4801   1.6071   3.9236   5.4624   8.9508   9.9100  10.0945  12.5342

          k = 0.2500 0.0000 0.2500 (  1159 PWs)   bands (ev):

    -5.1901   3.5499   4.6065   5.9448   9.2719   9.3556   9.5971  11.7815

          k = 0.0000 0.5000 0.0000 (  1174 PWs)   bands (ev):

    -4.6484   2.7160   4.3448   4.3448   7.3643   9.3700  11.9926  11.9926

          k =-0.1250 0.6250-0.1250 (  1155 PWs)   bands (ev):

    -3.9383   1.2916   3.5635   4.0263   7.5860   9.1320  12.2329  12.5054

          k = 0.7500-0.2500 0.7500 (  1150 PWs)   bands (ev):

    -3.0120  -0.1509   2.6994   4.0295   7.7556  10.6878  11.9790  12.1562

          k = 0.6250-0.1250 0.6250 (  1150 PWs)   bands (ev):

    -2.8077  -0.4094   2.2406   4.3483   8.0797  11.7050  11.7155  13.1960

          k = 0.5000 0.0000 0.5000 (  1159 PWs)   bands (ev):

    -3.6864   0.7519   2.4808   4.9076   8.6841  11.0217  11.3751  12.3785

          k = 0.0000 0.7500 0.0000 (  1150 PWs)   bands (ev):

    -3.3357   0.4868   3.6275   3.6275   6.8503   7.7767  14.2759  14.2759

          k = 0.8750-0.1250 0.8750 (  1150 PWs)   bands (ev):

    -2.4382  -0.5985   2.7979   3.5512   7.1304   8.2042  14.5014  14.5887

          k = 0.7500 0.0000 0.7500 (  1144 PWs)   bands (ev):

    -1.9993  -0.9953   1.9314   3.8091   7.4398  10.3674  13.7009  14.4627

          k = 0.0000-1.0000 0.0000 (  1162 PWs)   bands (ev):

    -1.5854  -1.5854   3.3816   3.3816   6.9458   6.9458  16.3331  16.3331

          k =-0.2500 0.5000 0.0000 (  1153 PWs)   bands (ev):

    -4.4009   1.9432   3.5211   4.8077   8.6827  10.1335  10.4349  11.7382

          k = 0.6250-0.3750 0.8750 (  1150 PWs)   bands (ev):

    -3.5124   0.3906   2.9127   4.3055   9.1132   9.7903  11.2559  12.1741

          k = 0.5000-0.2500 0.7500 (  1154 PWs)   bands (ev):

    -2.8599  -0.5549   2.7837   4.0756   9.3011   9.3707  12.1478  13.3598

          k = 0.7500-0.2500 1.0000 (  1171 PWs)   bands (ev):

    -3.1370   0.2678   2.8715   3.4749   8.1832   8.8841  11.9898  14.2256

          k = 0.6250-0.1250 0.8750 (  1155 PWs)   bands (ev):

    -2.2620  -0.7005   2.1730   3.2741   8.6252  10.5210  11.5115  13.6750

          k = 0.5000 0.0000 0.7500 (  1153 PWs)   bands (ev):

    -2.6127  -0.3372   2.0060   3.6504   9.1051  10.7825  11.4516  13.2681

          k =-0.2500-1.0000 0.0000 (  1156 PWs)   bands (ev):

    -1.5074  -1.5074   2.8170   2.8170   8.2074   8.2074  14.0822  14.0822

          k =-0.5000-1.0000 0.0000 (  1144 PWs)   bands (ev):

    -1.4215  -1.4215   2.3809   2.3809  10.5114  10.5114  11.2354  11.2354

     the Fermi energy is     6.5346 ev

!    total energy              =     -16.92456463 Ry
     estimated scf accuracy    <          4.4E-10 Ry
     smearing contrib. (-TS)   =      -0.00000060 Ry
     internal energy E=F+TS    =     -16.92456403 Ry

     The total energy is F=E-TS. E is the sum of the following terms:
     one-electron contribution =       4.96580552 Ry
     hartree contribution      =       1.09552699 Ry
     xc contribution           =      -6.18496696 Ry
     ewald contribution        =     -16.80092957 Ry

     convergence has been achieved in   6 iterations

     Writing all to output data dir ./tmp/si.save/ :
     XML data file, charge density, pseudopotentials, collected wavefunctions

     init_run     :      1.23s CPU      0.76s WALL (       1 calls)
     electrons    :     21.96s CPU     11.06s WALL (       1 calls)

     Called by init_run:
     wfcinit      :      0.80s CPU      0.40s WALL (       1 calls)
     potinit      :      0.15s CPU      0.10s WALL (       1 calls)
     hinit0       :      0.23s CPU      0.20s WALL (       1 calls)

     Called by electrons:
     c_bands      :     20.53s CPU     10.32s WALL (       7 calls)
     sum_band     :      1.21s CPU      0.61s WALL (       7 calls)
     v_of_rho     :      0.22s CPU      0.12s WALL (       7 calls)
     mix_rho      :      0.01s CPU      0.01s WALL (       7 calls)

     Called by c_bands:
     init_us_2    :      0.08s CPU      0.06s WALL (     435 calls)
     cegterg      :     20.29s CPU     10.16s WALL (     203 calls)

     Called by *egterg:
     cdiaghg      :      0.05s CPU      0.05s WALL (     777 calls)
     h_psi        :     17.04s CPU      8.53s WALL (     835 calls)
     g_psi        :      0.01s CPU      0.01s WALL (     603 calls)

     Called by h_psi:
     h_psi:calbec :      5.56s CPU      2.61s WALL (     835 calls)
     vloc_psi     :     10.14s CPU      5.30s WALL (     835 calls)
                                        0.00s GPU  (     835 calls)
     add_vuspsi   :      0.21s CPU      0.12s WALL (     835 calls)

     General routines
     calbec       :      5.55s CPU      2.61s WALL (     835 calls)
     fft          :      0.26s CPU      0.20s WALL (      83 calls)
     ffts         :      0.09s CPU      0.07s WALL (      14 calls)
     fftw         :      9.62s CPU      5.01s WALL (   10852 calls)
     interpolate  :      0.10s CPU      0.08s WALL (       7 calls)

     Parallel routines

     PWSCF        :     23.26s CPU     11.87s WALL


   This run was terminated on:  17:41:59   2Sep2026            

=------------------------------------------------------------------------------=
   JOB DONE.
=------------------------------------------------------------------------------=
