
     Program PWSCF v.7.5 starts on  2Sep2026 at 17:42: 1 

     This program is part of the open-source Quantum ESPRESSO suite
     for quantum simulation of materials; please cite
         "P. Giannozzi et al., J. Phys.:Condens. Matter 21 395502 (2009);
         "P. Giannozzi et al., J. Phys.:Condens. Matter 29 465901 (2017);
         "P. Giannozzi et al., J. Chem. Phys. 152 154105 (2020);
          URL http://www.quantum-espresso.org", 
     in publications or presentations arising from this work. More details at
     http://www.quantum-espresso.org/quote

     Parallel version (MPI & OpenMP), running on       4 processor cores
     Number of MPI processes:                 2
     Threads/MPI process:                     2

     MPI processes distributed on     1 nodes
     3640 MiB available memory on the printing compute node when the environment starts

     Waiting for input...
     Reading input from standard input

     Current dimensions of program PWSCF are:
     Max number of different atomic species (ntypx) = 10
     Max number of k-points (npk) =  40000
     Max angular momentum in pseudopotentials (lmaxx) =  4

     R & G space division:  proc/nbgrp/npool/nimage =       2
     Subspace diagonalization in iterative solution of the eigenvalue problem:
     a serial algorithm will be used


     Parallelization info
     --------------------
     sticks:   dense  smooth     PW     G-vecs:    dense   smooth      PW
     Min         906     366    111                25554     6469    1114
     Max         907     367    112                25555     6470    1115
     Sum        1813     733    223                51109    12939    2229

     Using Slab Decomposition



     bravais-lattice index     =            2
     lattice parameter (alat)  =      10.2600  a.u.
     unit-cell volume          =     270.0114 (a.u.)^3
     number of atoms/cell      =            2
     number of atomic types    =            1
     number of electrons       =         8.00
     number of Kohn-Sham states=            8
     kinetic-energy cutoff     =      50.0000  Ry
     charge density cutoff     =     500.0000  Ry
     scf convergence threshold =      1.0E-08
     mixing beta               =       0.7000
     number of iterations used =            8  plain     mixing
     Exchange-correlation= PBE
                           (   1   4   3   4   0   0   0)

     celldm(1)=  10.260000  celldm(2)=   0.000000  celldm(3)=   0.000000
     celldm(4)=   0.000000  celldm(5)=   0.000000  celldm(6)=   0.000000

     crystal axes: (cart. coord. in units of alat)
               a(1) = (  -0.500000   0.000000   0.500000 )  
               a(2) = (   0.000000   0.500000   0.500000 )  
               a(3) = (  -0.500000   0.500000   0.000000 )  

     reciprocal axes: (cart. coord. in units 2 pi/alat)
               b(1) = ( -1.000000 -1.000000  1.000000 )  
               b(2) = (  1.000000  1.000000  1.000000 )  
               b(3) = ( -1.000000  1.000000 -1.000000 )  


     PseudoPot. # 1 for Si read from file:
     ../Si.upf
     MD5 check sum: 02fab3f35e82123ef5bf1cb05d5b1a5e
     Pseudo is Norm-conserving + core correction, Zval =  4.0
     Generated using ONCVPSP code by D. R. Hamann
     Using radial grid of 1510 points,  6 beta functions with: 
                l(1) =   0
                l(2) =   0
                l(3) =   1
                l(4) =   1
                l(5) =   2
                l(6) =   2

     atomic species   valence    mass     pseudopotential
     Si                4.00    28.08550     Si( 1.00)

     48 Sym. Ops., with inversion, found (24 have fractional translation)



   Cartesian axes

     site n.     atom                  positions (alat units)
         1        Si     tau(   1) = (   0.0000000   0.0000000   0.0000000  )
         2        Si     tau(   2) = (  -0.2500000   0.2500000   0.2500000  )

     number of k points=    29  Gaussian smearing, width (Ry)=  0.0100
                       cart. coord. in units 2pi/alat
        k(    1) = (   0.0000000   0.0000000   0.0000000), wk =   0.0039062
        k(    2) = (  -0.1250000   0.1250000  -0.1250000), wk =   0.0312500
        k(    3) = (  -0.2500000   0.2500000  -0.2500000), wk =   0.0312500
        k(    4) = (  -0.3750000   0.3750000  -0.3750000), wk =   0.0312500
        k(    5) = (   0.5000000  -0.5000000   0.5000000), wk =   0.0156250
        k(    6) = (   0.0000000   0.2500000   0.0000000), wk =   0.0234375
        k(    7) = (  -0.1250000   0.3750000  -0.1250000), wk =   0.0937500
        k(    8) = (  -0.2500000   0.5000000  -0.2500000), wk =   0.0937500
        k(    9) = (   0.6250000  -0.3750000   0.6250000), wk =   0.0937500
        k(   10) = (   0.5000000  -0.2500000   0.5000000), wk =   0.0937500
        k(   11) = (   0.3750000  -0.1250000   0.3750000), wk =   0.0937500
        k(   12) = (   0.2500000   0.0000000   0.2500000), wk =   0.0468750
        k(   13) = (   0.0000000   0.5000000   0.0000000), wk =   0.0234375
        k(   14) = (  -0.1250000   0.6250000  -0.1250000), wk =   0.0937500
        k(   15) = (   0.7500000  -0.2500000   0.7500000), wk =   0.0937500
        k(   16) = (   0.6250000  -0.1250000   0.6250000), wk =   0.0937500
        k(   17) = (   0.5000000   0.0000000   0.5000000), wk =   0.0468750
        k(   18) = (   0.0000000   0.7500000   0.0000000), wk =   0.0234375
        k(   19) = (   0.8750000  -0.1250000   0.8750000), wk =   0.0937500
        k(   20) = (   0.7500000   0.0000000   0.7500000), wk =   0.0468750
        k(   21) = (   0.0000000  -1.0000000   0.0000000), wk =   0.0117188
        k(   22) = (  -0.2500000   0.5000000   0.0000000), wk =   0.0937500
        k(   23) = (   0.6250000  -0.3750000   0.8750000), wk =   0.1875000
        k(   24) = (   0.5000000  -0.2500000   0.7500000), wk =   0.0937500
        k(   25) = (   0.7500000  -0.2500000   1.0000000), wk =   0.0937500
        k(   26) = (   0.6250000  -0.1250000   0.8750000), wk =   0.1875000
        k(   27) = (   0.5000000   0.0000000   0.7500000), wk =   0.0937500
        k(   28) = (  -0.2500000  -1.0000000   0.0000000), wk =   0.0468750
        k(   29) = (  -0.5000000  -1.0000000   0.0000000), wk =   0.0234375

     Dense  grid:    51109 G-vectors     FFT dimensions: (  60,  60,  60)

     Smooth grid:    12939 G-vectors     FFT dimensions: (  36,  36,  36)

     Estimated max dynamical RAM per process >      23.49 MB

     Estimated total dynamical RAM >      46.99 MB

     Initial potential from superposition of free atoms

     starting charge       7.9988, renormalised to       8.0000
     Starting wfcs are    8 randomized atomic wfcs

     total cpu time spent up to now is        0.9 secs

     per-process dynamical memory:    24.2 Mb

     Self-consistent Calculation

     iteration #  1     ecut=    50.00 Ry     beta= 0.70
     Davidson diagonalization with overlap
     ethr =  1.00E-02,  avg # of iterations =  4.5

     Threshold (ethr) on eigenvalues was too large:
     Diagonalizing with lowered threshold

     Davidson diagonalization with overlap
     ethr =  6.56E-04,  avg # of iterations =  1.8

     total cpu time spent up to now is        5.2 secs

     total energy              =     -16.92215451 Ry
     estimated scf accuracy    <       0.05618421 Ry

     iteration #  2     ecut=    50.00 Ry     beta= 0.70
     Davidson diagonalization with overlap
     ethr =  7.02E-04,  avg # of iterations =  1.0

     total cpu time spent up to now is        6.5 secs

     total energy              =     -16.92445373 Ry
     estimated scf accuracy    <       0.00218784 Ry

     iteration #  3     ecut=    50.00 Ry     beta= 0.70
     Davidson diagonalization with overlap
     ethr =  2.73E-05,  avg # of iterations =  4.2

     total cpu time spent up to now is        9.2 secs

     total energy              =     -16.92456715 Ry
     estimated scf accuracy    <       0.00003929 Ry

     iteration #  4     ecut=    50.00 Ry     beta= 0.70
     Davidson diagonalization with overlap
     ethr =  4.91E-07,  avg # of iterations =  3.8

     total cpu time spent up to now is       11.3 secs

     total energy              =     -16.92457661 Ry
     estimated scf accuracy    <       0.00000022 Ry

     iteration #  5     ecut=    50.00 Ry     beta= 0.70
     Davidson diagonalization with overlap
     ethr =  2.80E-09,  avg # of iterations =  3.6

     total cpu time spent up to now is       14.2 secs

     total energy              =     -16.92457693 Ry
     estimated scf accuracy    <       0.00000002 Ry

     iteration #  6     ecut=    50.00 Ry     beta= 0.70
     Davidson diagonalization with overlap
     ethr =  2.03E-10,  avg # of iterations =  2.0

     total cpu time spent up to now is       16.0 secs

     End of self-consistent calculation

          k = 0.0000 0.0000 0.0000 (  1639 PWs)   bands (ev):

    -5.7305   6.2387   6.2387   6.2387   8.7944   8.7944   8.7944   9.5868

          k =-0.1250 0.1250-0.1250 (  1606 PWs)   bands (ev):

    -5.5263   4.6361   5.9486   5.9486   8.7326   9.2198   9.2198  10.9383

          k =-0.2500 0.2500-0.2500 (  1618 PWs)   bands (ev):

    -4.9307   2.3059   5.4766   5.4766   8.2596   9.7393   9.7393  13.1493

          k =-0.3750 0.3750-0.3750 (  1610 PWs)   bands (ev):

    -4.0368   0.2848   5.1490   5.1490   7.8964   9.6859   9.6859  14.1232

          k = 0.5000-0.5000 0.5000 (  1622 PWs)   bands (ev):

    -3.3987  -0.7381   5.0369   5.0369   7.7686   9.5753   9.5753  13.9705

          k = 0.0000 0.2500 0.0000 (  1603 PWs)   bands (ev):

    -5.4575   4.9013   5.4295   5.4295   8.2443   9.9374   9.9374  10.6238

          k =-0.1250 0.3750-0.1250 (  1605 PWs)   bands (ev):

    -4.9888   3.0092   4.9168   4.9929   8.3823   9.9383  10.7028  10.9906

          k =-0.2500 0.5000-0.2500 (  1598 PWs)   bands (ev):

    -4.1737   0.9474   4.4006   4.6484   8.4817   9.8749  10.7003  11.7072

          k = 0.6250-0.3750 0.6250 (  1609 PWs)   bands (ev):

    -3.3121  -0.5166   3.9545   4.6729   8.4277   9.7506  10.3366  13.6080

          k = 0.5000-0.2500 0.5000 (  1614 PWs)   bands (ev):

    -3.5567  -0.1458   3.7726   4.9699   8.5931   9.8606  10.1036  14.1524

          k = 0.3750-0.1250 0.3750 (  1614 PWs)   bands (ev):

    -4.4801   1.6070   3.9236   5.4624   8.9506   9.9100  10.0944  12.5340

          k = 0.2500 0.0000 0.2500 (  1608 PWs)   bands (ev):

    -5.1901   3.5498   4.6065   5.9448   9.2717   9.3555   9.5970  11.7812

          k = 0.0000 0.5000 0.0000 (  1612 PWs)   bands (ev):

    -4.6484   2.7160   4.3448   4.3448   7.3643   9.3699  11.9925  11.9925

          k =-0.1250 0.6250-0.1250 (  1616 PWs)   bands (ev):

    -3.9383   1.2916   3.5634   4.0263   7.5859   9.1319  12.2327  12.5052

          k = 0.7500-0.2500 0.7500 (  1617 PWs)   bands (ev):

    -3.0121  -0.1509   2.6994   4.0294   7.7556  10.6877  11.9788  12.1561

          k = 0.6250-0.1250 0.6250 (  1611 PWs)   bands (ev):

    -2.8077  -0.4094   2.2405   4.3483   8.0797  11.7049  11.7154  13.1958

          k = 0.5000 0.0000 0.5000 (  1604 PWs)   bands (ev):

    -3.6864   0.7518   2.4808   4.9076   8.6840  11.0217  11.3750  12.3783

          k = 0.0000 0.7500 0.0000 (  1624 PWs)   bands (ev):

    -3.3357   0.4868   3.6275   3.6275   6.8503   7.7766  14.2757  14.2757

          k = 0.8750-0.1250 0.8750 (  1625 PWs)   bands (ev):

    -2.4382  -0.5986   2.7979   3.5512   7.1304   8.2042  14.5012  14.5884

          k = 0.7500 0.0000 0.7500 (  1624 PWs)   bands (ev):

    -1.9993  -0.9953   1.9314   3.8091   7.4398  10.3673  13.7007  14.4620

          k = 0.0000-1.0000 0.0000 (  1604 PWs)   bands (ev):

    -1.5855  -1.5855   3.3816   3.3816   6.9458   6.9458  16.3327  16.3328

          k =-0.2500 0.5000 0.0000 (  1610 PWs)   bands (ev):

    -4.4009   1.9432   3.5210   4.8077   8.6827  10.1333  10.4348  11.7381

          k = 0.6250-0.3750 0.8750 (  1618 PWs)   bands (ev):

    -3.5125   0.3905   2.9126   4.3055   9.1131   9.7902  11.2558  12.1740

          k = 0.5000-0.2500 0.7500 (  1614 PWs)   bands (ev):

    -2.8599  -0.5549   2.7837   4.0756   9.3010   9.3706  12.1477  13.3596

          k = 0.7500-0.2500 1.0000 (  1613 PWs)   bands (ev):

    -3.1370   0.2678   2.8715   3.4749   8.1831   8.8840  11.9897  14.2254

          k = 0.6250-0.1250 0.8750 (  1613 PWs)   bands (ev):

    -2.2620  -0.7005   2.1729   3.2740   8.6252  10.5209  11.5113  13.6748

          k = 0.5000 0.0000 0.7500 (  1616 PWs)   bands (ev):

    -2.6127  -0.3372   2.0060   3.6503   9.1050  10.7824  11.4514  13.2679

          k =-0.2500-1.0000 0.0000 (  1626 PWs)   bands (ev):

    -1.5074  -1.5074   2.8170   2.8170   8.2073   8.2073  14.0820  14.0820

          k =-0.5000-1.0000 0.0000 (  1628 PWs)   bands (ev):

    -1.4215  -1.4215   2.3808   2.3808  10.5113  10.5113  11.2352  11.2352

     the Fermi energy is     6.5345 ev

!    total energy              =     -16.92457693 Ry
     estimated scf accuracy    <          3.6E-10 Ry
     smearing contrib. (-TS)   =      -0.00000060 Ry
     internal energy E=F+TS    =     -16.92457633 Ry

     The total energy is F=E-TS. E is the sum of the following terms:
     one-electron contribution =       4.96579238 Ry
     hartree contribution      =       1.09552760 Ry
     xc contribution           =      -6.18496673 Ry
     ewald contribution        =     -16.80092957 Ry

     convergence has been achieved in   6 iterations

     Writing all to output data dir ./tmp/si.save/ :
     XML data file, charge density, pseudopotentials, collected wavefunctions

     init_run     :      1.43s CPU      0.88s WALL (       1 calls)
     electrons    :     29.92s CPU     15.07s WALL (       1 calls)

     Called by init_run:
     wfcinit      :      0.93s CPU      0.47s WALL (       1 calls)
     potinit      :      0.22s CPU      0.17s WALL (       1 calls)
     hinit0       :      0.27s CPU      0.23s WALL (       1 calls)

     Called by electrons:
     c_bands      :     28.14s CPU     14.15s WALL (       7 calls)
     sum_band     :      1.35s CPU      0.68s WALL (       7 calls)
     v_of_rho     :      0.40s CPU      0.22s WALL (       7 calls)
     mix_rho      :      0.03s CPU      0.01s WALL (       7 calls)

     Called by c_bands:
     init_us_2    :      0.18s CPU      0.10s WALL (     435 calls)
     cegterg      :     27.66s CPU     13.90s WALL (     203 calls)

     Called by *egterg:
     cdiaghg      :      0.05s CPU      0.05s WALL (     780 calls)
     h_psi        :     23.69s CPU     11.92s WALL (     838 calls)
     g_psi        :      0.01s CPU      0.01s WALL (     606 calls)

     Called by h_psi:
     h_psi:calbec :      5.76s CPU      2.71s WALL (     838 calls)
     vloc_psi     :     16.52s CPU      8.51s WALL (     838 calls)
                                        0.00s GPU  (     838 calls)
     add_vuspsi   :      0.15s CPU      0.10s WALL (     838 calls)

     General routines
     calbec       :      5.76s CPU      2.71s WALL (     838 calls)
     fft          :      0.34s CPU      0.26s WALL (      83 calls)
     ffts         :      0.14s CPU      0.12s WALL (      14 calls)
     fftw         :     15.87s CPU      8.17s WALL (   10910 calls)
     interpolate  :      0.16s CPU      0.13s WALL (       7 calls)

     Parallel routines

     PWSCF        :     31.41s CPU     16.00s WALL


   This run was terminated on:  17:42:17   2Sep2026            

=------------------------------------------------------------------------------=
   JOB DONE.
=------------------------------------------------------------------------------=
