
     Program PWSCF v.7.5 starts on 28Aug2026 at 17:55:37 

     This program is part of the open-source Quantum ESPRESSO suite
     for quantum simulation of materials; please cite
         "P. Giannozzi et al., J. Phys.:Condens. Matter 21 395502 (2009);
         "P. Giannozzi et al., J. Phys.:Condens. Matter 29 465901 (2017);
         "P. Giannozzi et al., J. Chem. Phys. 152 154105 (2020);
          URL http://www.quantum-espresso.org", 
     in publications or presentations arising from this work. More details at
     http://www.quantum-espresso.org/quote

     Parallel version (MPI & OpenMP), running on       8 processor cores
     Number of MPI processes:                 4
     Threads/MPI process:                     2

     MPI processes distributed on     1 nodes
     1762 MiB available memory on the printing compute node when the environment starts

     Reading input from espresso.pwi
Warning: card &CELL ignored
Warning: card &FCP ignored
Warning: card &RISM ignored

     Current dimensions of program PWSCF are:
     Max number of different atomic species (ntypx) = 10
     Max number of k-points (npk) =  40000
     Max angular momentum in pseudopotentials (lmaxx) =  4
     Message from routine setup:
     using ibrav=0 with symmetry is DISCOURAGED, use correct ibrav instead

     R & G space division:  proc/nbgrp/npool/nimage =       4
     Subspace diagonalization in iterative solution of the eigenvalue problem:
     a serial algorithm will be used


     Parallelization info
     --------------------
     sticks:   dense  smooth     PW     G-vecs:    dense   smooth      PW
     Min          73      73     22                  821      821     152
     Max          74      74     23                  823      823     153
     Sum         295     295     91                 3287     3287     609

     Using Slab Decomposition



     bravais-lattice index     =            0
     lattice parameter (alat)  =       7.2558  a.u.
     unit-cell volume          =     270.1072 (a.u.)^3
     number of atoms/cell      =            2
     number of atomic types    =            1
     number of electrons       =         8.00
     number of Kohn-Sham states=            8
     kinetic-energy cutoff     =      20.0000  Ry
     charge density cutoff     =      80.0000  Ry
     scf convergence threshold =      1.0E-06
     mixing beta               =       0.7000
     number of iterations used =            8  plain     mixing
     Exchange-correlation= PBE
                           (   1   4   3   4   0   0   0)

     celldm(1)=   7.255773  celldm(2)=   0.000000  celldm(3)=   0.000000
     celldm(4)=   0.000000  celldm(5)=   0.000000  celldm(6)=   0.000000

     crystal axes: (cart. coord. in units of alat)
               a(1) = (   0.000000   0.707107   0.707107 )  
               a(2) = (   0.707107   0.000000   0.707107 )  
               a(3) = (   0.707107   0.707107   0.000000 )  

     reciprocal axes: (cart. coord. in units 2 pi/alat)
               b(1) = ( -0.707107  0.707107  0.707107 )  
               b(2) = (  0.707107 -0.707107  0.707107 )  
               b(3) = (  0.707107  0.707107 -0.707107 )  


     PseudoPot. # 1 for Si read from file:
     /home/rehim/Desktop/Molecular-and-Materials-Modeling-2026-August/molecular-modeling/conda_environment/software_checks/basic_functionality_checks/qe/Si.upf
     MD5 check sum: 02fab3f35e82123ef5bf1cb05d5b1a5e
     Pseudo is Norm-conserving + core correction, Zval =  4.0
     Generated using ONCVPSP code by D. R. Hamann
     Using radial grid of 1510 points,  6 beta functions with: 
                l(1) =   0
                l(2) =   0
                l(3) =   1
                l(4) =   1
                l(5) =   2
                l(6) =   2

     atomic species   valence    mass     pseudopotential
     Si                4.00    28.08500     Si( 1.00)

     48 Sym. Ops., with inversion, found (24 have fractional translation)



   Cartesian axes

     site n.     atom                  positions (alat units)
         1        Si     tau(   1) = (   0.0000000   0.0000000   0.0000000  )
         2        Si     tau(   2) = (   0.3535534   0.3535534   0.3535534  )

     number of k points=     8  Gaussian smearing, width (Ry)=  0.0200
                       cart. coord. in units 2pi/alat
        k(    1) = (   0.0000000   0.0000000   0.0000000), wk =   0.0312500
        k(    2) = (   0.1767767   0.1767767  -0.1767767), wk =   0.2500000
        k(    3) = (  -0.3535534  -0.3535534   0.3535534), wk =   0.1250000
        k(    4) = (   0.3535534   0.0000000   0.0000000), wk =   0.1875000
        k(    5) = (  -0.1767767  -0.5303301   0.5303301), wk =   0.7500000
        k(    6) = (   0.0000000  -0.3535534   0.3535534), wk =   0.3750000
        k(    7) = (  -0.7071068   0.0000000   0.0000000), wk =   0.0937500
        k(    8) = (  -0.7071068   0.3535534   0.0000000), wk =   0.1875000

     Dense  grid:     3287 G-vectors     FFT dimensions: (  24,  24,  24)

     Estimated max dynamical RAM per process >       1.53 MB

     Estimated total dynamical RAM >       6.13 MB

     Initial potential from superposition of free atoms

     starting charge       7.9988, renormalised to       8.0000
     Starting wfcs are    8 randomized atomic wfcs

     total cpu time spent up to now is        0.2 secs

     per-process dynamical memory:     7.1 Mb

     Self-consistent Calculation

     iteration #  1     ecut=    20.00 Ry     beta= 0.70
     Davidson diagonalization with overlap
     ethr =  1.00E-02,  avg # of iterations =  4.1

     Threshold (ethr) on eigenvalues was too large:
     Diagonalizing with lowered threshold

     Davidson diagonalization with overlap
     ethr =  7.29E-04,  avg # of iterations =  1.2

     total cpu time spent up to now is        0.2 secs

     total energy              =     -16.90654505 Ry
     estimated scf accuracy    <       0.06208625 Ry

     iteration #  2     ecut=    20.00 Ry     beta= 0.70
     Davidson diagonalization with overlap
     ethr =  7.76E-04,  avg # of iterations =  1.0

     total cpu time spent up to now is        0.2 secs

     total energy              =     -16.90901976 Ry
     estimated scf accuracy    <       0.00241520 Ry

     iteration #  3     ecut=    20.00 Ry     beta= 0.70
     Davidson diagonalization with overlap
     ethr =  3.02E-05,  avg # of iterations =  3.0

     total cpu time spent up to now is        0.3 secs

     total energy              =     -16.90914355 Ry
     estimated scf accuracy    <       0.00004237 Ry

     iteration #  4     ecut=    20.00 Ry     beta= 0.70
     Davidson diagonalization with overlap
     ethr =  5.30E-07,  avg # of iterations =  3.2

     total cpu time spent up to now is        0.3 secs

     End of self-consistent calculation

          k = 0.0000 0.0000 0.0000 (   411 PWs)   bands (ev):

    -5.6988   6.2857   6.2857   6.2857   8.8224   8.8224   8.8224   9.6251

          k = 0.1768 0.1768-0.1768 (   401 PWs)   bands (ev):

    -4.8985   2.3395   5.5155   5.5155   8.2983   9.7748   9.7748  13.1909

          k =-0.3536-0.3536 0.3536 (   410 PWs)   bands (ev):

    -3.3648  -0.7097   5.0724   5.0724   7.8139   9.6130   9.6130  13.9985

          k = 0.3536 0.0000 0.0000 (   415 PWs)   bands (ev):

    -4.6167   2.7558   4.3764   4.3764   7.3957   9.4081  12.0450  12.0450

          k =-0.1768-0.5303 0.5303 (   412 PWs)   bands (ev):

    -2.9788  -0.1176   2.7278   4.0601   7.7911  10.7352  12.0270  12.2053

          k = 0.0000-0.3536 0.3536 (   407 PWs)   bands (ev):

    -3.6535   0.7863   2.5081   4.9427   8.7199  11.0579  11.4338  12.4156

          k =-0.7071 0.0000 0.0000 (   412 PWs)   bands (ev):

    -1.5513  -1.5513   3.4100   3.4100   6.9798   6.9798  16.3771  16.3772

          k =-0.7071 0.3536 0.0000 (   412 PWs)   bands (ev):

    -1.3866  -1.3866   2.4065   2.4065  10.5628  10.5628  11.2730  11.2730

     the Fermi energy is     6.6024 ev

!    total energy              =     -16.90915354 Ry
     estimated scf accuracy    <       0.00000065 Ry
     smearing contrib. (-TS)   =      -0.00029123 Ry
     internal energy E=F+TS    =     -16.90886231 Ry

     The total energy is F=E-TS. E is the sum of the following terms:
     one-electron contribution =       4.96739376 Ry
     hartree contribution      =       1.11627029 Ry
     xc contribution           =      -6.19358261 Ry
     ewald contribution        =     -16.79894375 Ry

     convergence has been achieved in   4 iterations

     Forces acting on atoms (cartesian axes, Ry/au):

     atom    1 type  1   force =    -0.00000000    0.00000000   -0.00000000
     atom    2 type  1   force =     0.00000000   -0.00000000    0.00000000

     Total force =     0.000000     Total SCF correction =     0.000000


     Computing stress (Cartesian axis) and pressure

          total   stress  (Ry/bohr**3)                   (kbar)     P=       22.35
   0.00015192   0.00000000   0.00000000           22.35        0.00        0.00
   0.00000000   0.00015192   0.00000000            0.00       22.35        0.00
   0.00000000   0.00000000   0.00015192            0.00        0.00       22.35


     Writing all to output data dir /home/rehim/Desktop/Molecular-and-Materials-Modeling-2026-August/molecular-modeling/conda_environment/software_checks/basic_functionality_checks/qe/tmp/si_test.save/ :
     XML data file, charge density, pseudopotentials, collected wavefunctions

     init_run     :      0.18s CPU      0.13s WALL (       1 calls)
     electrons    :      0.22s CPU      0.12s WALL (       1 calls)
     forces       :      0.01s CPU      0.00s WALL (       1 calls)
     stress       :      0.03s CPU      0.01s WALL (       1 calls)

     Called by init_run:
     wfcinit      :      0.01s CPU      0.01s WALL (       1 calls)
     potinit      :      0.01s CPU      0.01s WALL (       1 calls)
     hinit0       :      0.15s CPU      0.11s WALL (       1 calls)

     Called by electrons:
     c_bands      :      0.18s CPU      0.10s WALL (       5 calls)
     sum_band     :      0.03s CPU      0.02s WALL (       5 calls)
     v_of_rho     :      0.01s CPU      0.01s WALL (       5 calls)
     mix_rho      :      0.00s CPU      0.00s WALL (       5 calls)

     Called by c_bands:
     init_us_2    :      0.00s CPU      0.00s WALL (     104 calls)
     cegterg      :      0.17s CPU      0.09s WALL (      40 calls)

     Called by *egterg:
     cdiaghg      :      0.02s CPU      0.01s WALL (     133 calls)
     h_psi        :      0.15s CPU      0.08s WALL (     149 calls)
     g_psi        :      0.00s CPU      0.00s WALL (     101 calls)

     Called by h_psi:
     h_psi:calbec :      0.01s CPU      0.01s WALL (     149 calls)
     vloc_psi     :      0.13s CPU      0.07s WALL (     149 calls)
                                        0.00s GPU  (     149 calls)
     add_vuspsi   :      0.00s CPU      0.00s WALL (     149 calls)

     General routines
     calbec       :      0.01s CPU      0.01s WALL (     285 calls)
     fft          :      0.13s CPU      0.10s WALL (      75 calls)
     ffts         :      0.00s CPU      0.00s WALL (       5 calls)
     fftw         :      0.14s CPU      0.07s WALL (    2100 calls)

     Parallel routines

     PWSCF        :      0.48s CPU      0.31s WALL


   This run was terminated on:  17:55:37  28Aug2026            

=------------------------------------------------------------------------------=
   JOB DONE.
=------------------------------------------------------------------------------=
