
     Program PWSCF v.7.5 starts on 29Aug2026 at 22:28:34 

     This program is part of the open-source Quantum ESPRESSO suite
     for quantum simulation of materials; please cite
         "P. Giannozzi et al., J. Phys.:Condens. Matter 21 395502 (2009);
         "P. Giannozzi et al., J. Phys.:Condens. Matter 29 465901 (2017);
         "P. Giannozzi et al., J. Chem. Phys. 152 154105 (2020);
          URL http://www.quantum-espresso.org", 
     in publications or presentations arising from this work. More details at
     http://www.quantum-espresso.org/quote

     Parallel version (MPI & OpenMP), running on       4 processor cores
     Number of MPI processes:                 2
     Threads/MPI process:                     2

     MPI processes distributed on     1 nodes
     6180 MiB available memory on the printing compute node when the environment starts

     Reading input from Tl2.so_scf.in
Warning: card &CELL ignored
Warning: card &FCP ignored
Warning: card &RISM ignored

     Current dimensions of program PWSCF are:
     Max number of different atomic species (ntypx) = 10
     Max number of k-points (npk) =  40000
     Max angular momentum in pseudopotentials (lmaxx) =  4
     Message from routine setup:
     using ibrav=0 with symmetry is DISCOURAGED, use correct ibrav instead

     R & G space division:  proc/nbgrp/npool/nimage =       2
     Subspace diagonalization in iterative solution of the eigenvalue problem:
     a serial algorithm will be used


     Parallelization info
     --------------------
     sticks:   dense  smooth     PW     G-vecs:    dense   smooth      PW
     Min         237     237     75                 6593     6593    1129
     Max         238     238     76                 6594     6594    1132
     Sum         475     475    151                13187    13187    2261

     Using Slab Decomposition



     bravais-lattice index     =            0
     lattice parameter (alat)  =       6.5385  a.u.
     unit-cell volume          =     386.2055 (a.u.)^3
     number of atoms/cell      =            2
     number of atomic types    =            1
     number of electrons       =        26.00
     number of Kohn-Sham states=           34
     kinetic-energy cutoff     =      40.0000  Ry
     charge density cutoff     =     160.0000  Ry
     scf convergence threshold =      1.0E-08
     mixing beta               =       0.7000
     number of iterations used =            8  plain     mixing
     Exchange-correlation= PBESOL
                           (   1   4  10   8   0   0   0)
     Non magnetic calculation with spin-orbit


     celldm(1)=   6.538452  celldm(2)=   0.000000  celldm(3)=   0.000000
     celldm(4)=   0.000000  celldm(5)=   0.000000  celldm(6)=   0.000000

     crystal axes: (cart. coord. in units of alat)
               a(1) = (   1.000000   0.000000   0.000000 )  
               a(2) = (  -0.500000   0.866025   0.000000 )  
               a(3) = (   0.000000   0.000000   1.595376 )  

     reciprocal axes: (cart. coord. in units 2 pi/alat)
               b(1) = (  1.000000  0.577350 -0.000000 )  
               b(2) = (  0.000000  1.154701  0.000000 )  
               b(3) = (  0.000000 -0.000000  0.626812 )  


     PseudoPot. # 1 for Tl read from file:
     ./Tl.upf
     MD5 check sum: fe8ae4dddb95dc14b6cb3b750f4fb184
     Pseudo is Norm-conserving + core correction, Zval = 13.0
     Generated using ONCVPSP code by D. R. Hamann
     Using radial grid of 2130 points, 10 beta functions with: 
                l(1) =   0
                l(2) =   0
                l(3) =   1
                l(4) =   1
                l(5) =   1
                l(6) =   1
                l(7) =   2
                l(8) =   2
                l(9) =   2
               l(10) =   2

     atomic species   valence    mass     pseudopotential
     Tl               13.00   204.38000     Tl( 1.00)

     24 Sym. Ops., with inversion, found (12 have fractional translation)



   Cartesian axes

     site n.     atom                  positions (alat units)
         1        Tl     tau(   1) = (   0.0000000   0.0000000   0.0000000  )
         2        Tl     tau(   2) = (   0.0000000   0.5773503   0.7976879  )

     number of k points=    50  Marzari-Vanderbilt smearing, width (Ry)=  0.0100
                       cart. coord. in units 2pi/alat
        k(    1) = (   0.0000000   0.0000000   0.0000000), wk =   0.0019531
        k(    2) = (   0.0000000   0.0000000   0.0783514), wk =   0.0039062
        k(    3) = (   0.0000000   0.0000000   0.1567029), wk =   0.0039062
        k(    4) = (   0.0000000   0.0000000   0.2350543), wk =   0.0039062
        k(    5) = (   0.0000000   0.0000000  -0.3134058), wk =   0.0019531
        k(    6) = (   0.0000000   0.1443376   0.0000000), wk =   0.0117188
        k(    7) = (   0.0000000   0.1443376   0.0783514), wk =   0.0234375
        k(    8) = (   0.0000000   0.1443376   0.1567029), wk =   0.0234375
        k(    9) = (   0.0000000   0.1443376   0.2350543), wk =   0.0234375
        k(   10) = (   0.0000000   0.1443376  -0.3134058), wk =   0.0117188
        k(   11) = (   0.0000000   0.2886751   0.0000000), wk =   0.0117188
        k(   12) = (   0.0000000   0.2886751   0.0783514), wk =   0.0234375
        k(   13) = (   0.0000000   0.2886751   0.1567029), wk =   0.0234375
        k(   14) = (   0.0000000   0.2886751   0.2350543), wk =   0.0234375
        k(   15) = (   0.0000000   0.2886751  -0.3134058), wk =   0.0117188
        k(   16) = (   0.0000000   0.4330127   0.0000000), wk =   0.0117188
        k(   17) = (   0.0000000   0.4330127   0.0783514), wk =   0.0234375
        k(   18) = (   0.0000000   0.4330127   0.1567029), wk =   0.0234375
        k(   19) = (   0.0000000   0.4330127   0.2350543), wk =   0.0234375
        k(   20) = (   0.0000000   0.4330127  -0.3134058), wk =   0.0117188
        k(   21) = (   0.0000000  -0.5773503   0.0000000), wk =   0.0058594
        k(   22) = (   0.0000000  -0.5773503   0.0783514), wk =   0.0117188
        k(   23) = (   0.0000000  -0.5773503   0.1567029), wk =   0.0117188
        k(   24) = (   0.0000000  -0.5773503   0.2350543), wk =   0.0117188
        k(   25) = (   0.0000000  -0.5773503  -0.3134058), wk =   0.0058594
        k(   26) = (   0.1250000   0.2165064   0.0000000), wk =   0.0117188
        k(   27) = (   0.1250000   0.2165064   0.0783514), wk =   0.0234375
        k(   28) = (   0.1250000   0.2165064   0.1567029), wk =   0.0234375
        k(   29) = (   0.1250000   0.2165064   0.2350543), wk =   0.0234375
        k(   30) = (   0.1250000   0.2165064  -0.3134058), wk =   0.0117188
        k(   31) = (   0.1250000   0.3608439   0.0000000), wk =   0.0234375
        k(   32) = (   0.1250000   0.3608439   0.0783514), wk =   0.0468750
        k(   33) = (   0.1250000   0.3608439   0.1567029), wk =   0.0468750
        k(   34) = (   0.1250000   0.3608439   0.2350543), wk =   0.0468750
        k(   35) = (   0.1250000   0.3608439  -0.3134058), wk =   0.0234375
        k(   36) = (   0.1250000   0.5051815   0.0000000), wk =   0.0234375
        k(   37) = (   0.1250000   0.5051815   0.0783514), wk =   0.0468750
        k(   38) = (   0.1250000   0.5051815   0.1567029), wk =   0.0468750
        k(   39) = (   0.1250000   0.5051815   0.2350543), wk =   0.0468750
        k(   40) = (   0.1250000   0.5051815  -0.3134058), wk =   0.0234375
        k(   41) = (   0.2500000   0.4330127   0.0000000), wk =   0.0117188
        k(   42) = (   0.2500000   0.4330127   0.0783514), wk =   0.0234375
        k(   43) = (   0.2500000   0.4330127   0.1567029), wk =   0.0234375
        k(   44) = (   0.2500000   0.4330127   0.2350543), wk =   0.0234375
        k(   45) = (   0.2500000   0.4330127  -0.3134058), wk =   0.0117188
        k(   46) = (   0.2500000   0.5773503   0.0000000), wk =   0.0117188
        k(   47) = (   0.2500000   0.5773503   0.0783514), wk =   0.0234375
        k(   48) = (   0.2500000   0.5773503   0.1567029), wk =   0.0234375
        k(   49) = (   0.2500000   0.5773503   0.2350543), wk =   0.0234375
        k(   50) = (   0.2500000   0.5773503  -0.3134058), wk =   0.0117188

     Dense  grid:    13187 G-vectors     FFT dimensions: (  27,  27,  48)

     Estimated max dynamical RAM per process >      62.86 MB

     Estimated total dynamical RAM >     125.72 MB

     Initial potential from superposition of free atoms

     starting charge      25.9898, renormalised to      26.0000
     Starting wfcs are   36 randomized atomic wfcs

     total cpu time spent up to now is        5.5 secs

     per-process dynamical memory:    63.5 Mb

     Self-consistent Calculation

     iteration #  1     ecut=    40.00 Ry     beta= 0.70
     Davidson diagonalization with overlap
     ethr =  1.00E-02,  avg # of iterations =  3.2

     Threshold (ethr) on eigenvalues was too large:
     Diagonalizing with lowered threshold

     Davidson diagonalization with overlap
     ethr =  4.43E-05,  avg # of iterations =  5.9

     total cpu time spent up to now is       47.9 secs

     total energy              =    -242.12286789 Ry
     estimated scf accuracy    <       0.01504083 Ry

     iteration #  2     ecut=    40.00 Ry     beta= 0.70
     Davidson diagonalization with overlap
     ethr =  5.78E-05,  avg # of iterations =  2.0

     total cpu time spent up to now is       64.8 secs

     total energy              =    -242.12737071 Ry
     estimated scf accuracy    <       0.00190550 Ry

     iteration #  3     ecut=    40.00 Ry     beta= 0.70
     Davidson diagonalization with overlap
     ethr =  7.33E-06,  avg # of iterations =  2.2

     total cpu time spent up to now is       81.0 secs

     total energy              =    -242.12772342 Ry
     estimated scf accuracy    <       0.00002896 Ry

     iteration #  4     ecut=    40.00 Ry     beta= 0.70
     Davidson diagonalization with overlap
     ethr =  1.11E-07,  avg # of iterations =  2.3

     total cpu time spent up to now is       95.0 secs

     total energy              =    -242.12772555 Ry
     estimated scf accuracy    <       0.00000081 Ry

     iteration #  5     ecut=    40.00 Ry     beta= 0.70
     Davidson diagonalization with overlap
     ethr =  3.10E-09,  avg # of iterations =  2.5

     total cpu time spent up to now is      115.0 secs

     total energy              =    -242.12772581 Ry
     estimated scf accuracy    <       0.00000002 Ry

     iteration #  6     ecut=    40.00 Ry     beta= 0.70
     Davidson diagonalization with overlap
     ethr =  5.80E-11,  avg # of iterations =  3.8

     total cpu time spent up to now is      141.2 secs

     End of self-consistent calculation

          k = 0.0000 0.0000 0.0000 (  1689 PWs)   bands (ev):

    -2.1082  -2.1082  -2.1016  -2.1016  -2.0829  -2.0829  -2.0264  -2.0264
    -0.0042  -0.0042   0.0351   0.0351   0.0542   0.0542   0.0553   0.0553
     0.1120   0.1120   0.4264   0.4264   0.5886   0.5886   5.5881   5.5881
     7.6570   7.6570  17.5754  17.5754  18.7850  18.7850  19.2789  19.2789
    21.2439  21.2440

          k = 0.0000 0.0000 0.0784 (  1695 PWs)   bands (ev):

    -2.1013  -2.1013  -2.0984  -2.0984  -2.0890  -2.0890  -2.0329  -2.0329
    -0.0260  -0.0260   0.0065   0.0065   0.0653   0.0653   0.0963   0.0963
     0.1261   0.1261   0.4106   0.4106   0.6736   0.6736   4.9050   4.9050
     8.5025   8.5025  17.6420  17.6420  18.5133  18.5133  19.3539  19.3539
    21.1923  21.1926

          k = 0.0000 0.0000 0.1567 (  1677 PWs)   bands (ev):

    -2.0977  -2.0977  -2.0849  -2.0849  -2.0845  -2.0845  -2.0333  -2.0333
    -0.0456  -0.0456  -0.0311  -0.0311   0.1055   0.1055   0.1325   0.1325
     0.1637   0.1637   0.3826   0.3826   0.9384   0.9384   3.8384   3.8384
    10.0584  10.0584  17.4820  17.4820  17.8393  17.8393  19.5722  19.5722
    19.8423  19.8424

          k = 0.0000 0.0000 0.2351 (  1647 PWs)   bands (ev):

    -2.0932  -2.0932  -2.0877  -2.0877  -2.0573  -2.0573  -2.0327  -2.0327
    -0.0588  -0.0588  -0.0542  -0.0542   0.1392   0.1392   0.1536   0.1536
     0.2213   0.2213   0.3365   0.3365   1.3946   1.3946   2.8597   2.8597
    11.8452  11.8452  15.7223  15.7223  18.1549  18.1549  19.0970  19.0971
    19.9090  19.9091

          k = 0.0000 0.0000-0.3134 (  1640 PWs)   bands (ev):

    -2.0905  -2.0905  -2.0905  -2.0905  -2.0417  -2.0417  -2.0417  -2.0417
    -0.0640  -0.0640  -0.0640  -0.0640   0.1555   0.1555   0.1555   0.1555
     0.2810   0.2810   0.2810   0.2810   2.0380   2.0380   2.0380   2.0380
    13.7624  13.7624  13.7624  13.7624  18.5740  18.5740  18.5740  18.5741
    20.3173  20.3173

          k = 0.0000 0.1443 0.0000 (  1669 PWs)   bands (ev):

    -2.0999  -2.0999  -2.0817  -2.0817  -2.0711  -2.0711  -2.0122  -2.0122
    -0.0113  -0.0113   0.0359   0.0359   0.0665   0.0665   0.0799   0.0799
     0.1587   0.1587   0.3936   0.3936   0.8907   0.8907   5.7699   5.7699
     8.0353   8.0353  15.6439  15.6439  17.0719  17.0719  18.6396  18.6396
    20.0641  20.0642

          k = 0.0000 0.1443 0.0784 (  1667 PWs)   bands (ev):

    -2.0965  -2.0965  -2.0796  -2.0796  -2.0715  -2.0715  -2.0145  -2.0145
    -0.0211  -0.0211   0.0185   0.0185   0.0802   0.0802   0.1007   0.1007
     0.1672   0.1672   0.3820   0.3820   0.9783   0.9783   5.1416   5.1416
     8.8194   8.8194  15.7261  15.7261  17.0694  17.0694  18.4775  18.4775
    19.8266  19.8267

          k = 0.0000 0.1443 0.1567 (  1673 PWs)   bands (ev):

    -2.0951  -2.0951  -2.0791  -2.0791  -2.0686  -2.0686  -2.0214  -2.0214
    -0.0369  -0.0369  -0.0095  -0.0095   0.1016   0.1016   0.1343   0.1343
     0.1863   0.1863   0.3499   0.3499   1.2475   1.2475   4.1135   4.1135
    10.3117  10.3117  15.9595  15.9595  16.8068  16.8068  18.1349  18.1349
    19.0455  19.0455

          k = 0.0000 0.1443 0.2351 (  1654 PWs)   bands (ev):

    -2.0890  -2.0890  -2.0814  -2.0814  -2.0506  -2.0506  -2.0230  -2.0230
    -0.0427  -0.0427  -0.0292  -0.0292   0.1349   0.1349   0.1594   0.1594
     0.2150   0.2150   0.3063   0.3063   1.7036   1.7036   3.1542   3.1542
    12.0297  12.0297  15.5474  15.5474  16.4530  16.4530  17.7024  17.7024
    18.5393  18.5393

          k = 0.0000 0.1443-0.3134 (  1650 PWs)   bands (ev):

    -2.0856  -2.0856  -2.0856  -2.0856  -2.0338  -2.0338  -2.0338  -2.0338
    -0.0406  -0.0406  -0.0406  -0.0406   0.1576   0.1576   0.1576   0.1576
     0.2560   0.2560   0.2560   0.2560   2.3428   2.3428   2.3428   2.3428
    13.8392  13.8392  13.8392  13.8392  16.9992  16.9992  16.9992  16.9993
    18.9295  18.9295

          k = 0.0000 0.2887 0.0000 (  1659 PWs)   bands (ev):

    -2.0942  -2.0942  -2.0673  -2.0673  -2.0492  -2.0492  -1.9949  -1.9949
    -0.0110  -0.0110   0.0285   0.0285   0.0742   0.0742   0.1206   0.1206
     0.2371   0.2371   0.3829   0.3829   1.8156   1.8156   6.3222   6.3222
     9.0687   9.0687  12.3134  12.3134  15.2176  15.2176  16.4203  16.4203
    18.4542  18.4542

          k = 0.0000 0.2887 0.0784 (  1647 PWs)   bands (ev):

    -2.0901  -2.0901  -2.0661  -2.0661  -2.0453  -2.0453  -1.9939  -1.9939
    -0.0206  -0.0206   0.0303   0.0303   0.0939   0.0939   0.1240   0.1240
     0.2349   0.2349   0.3840   0.3840   1.9031   1.9031   5.8282   5.8282
     9.6530   9.6530  12.4636  12.4636  15.0506  15.0506  16.3031  16.3031
    18.5298  18.5298

          k = 0.0000 0.2887 0.1567 (  1652 PWs)   bands (ev):

    -2.0880  -2.0880  -2.0700  -2.0700  -2.0430  -2.0430  -1.9985  -1.9985
    -0.0290  -0.0290   0.0279   0.0279   0.0997   0.0997   0.1330   0.1330
     0.2375   0.2375   0.3745   0.3745   2.1681   2.1681   4.9167   4.9167
    10.7774  10.7774  12.9548  12.9548  14.4714  14.4714  16.3903  16.3903
    18.2006  18.2006

          k = 0.0000 0.2887 0.2351 (  1652 PWs)   bands (ev):

    -2.0836  -2.0836  -2.0741  -2.0741  -2.0332  -2.0332  -2.0087  -2.0087
    -0.0191  -0.0191   0.0191   0.0191   0.0972   0.0972   0.1254   0.1254
     0.2713   0.2713   0.3489   0.3489   2.6144   2.6144   4.0152   4.0152
    11.8615  11.8615  13.5208  13.5208  14.0810  14.0810  16.6528  16.6528
    17.1990  17.1991

          k = 0.0000 0.2887-0.3134 (  1650 PWs)   bands (ev):

    -2.0793  -2.0793  -2.0793  -2.0793  -2.0198  -2.0198  -2.0198  -2.0198
     0.0018   0.0018   0.0018   0.0018   0.1061   0.1061   0.1061   0.1061
     0.3135   0.3135   0.3135   0.3135   3.2359   3.2359   3.2359   3.2359
    12.7645  12.7645  12.7645  12.7645  15.4054  15.4054  15.4055  15.4055
    17.5756  17.5756

          k = 0.0000 0.4330 0.0000 (  1644 PWs)   bands (ev):

    -2.0876  -2.0876  -2.0736  -2.0736  -2.0288  -2.0288  -1.9987  -1.9987
    -0.0193  -0.0193   0.0332   0.0332   0.1056   0.1056   0.1165   0.1165
     0.2910   0.2910   0.4903   0.4903   3.3245   3.3245   6.8845   6.8845
     9.6040   9.6040  10.7156  10.7156  12.8352  12.8352  14.8968  14.8968
    15.9582  15.9582

          k = 0.0000 0.4330 0.0784 (  1648 PWs)   bands (ev):

    -2.0900  -2.0900  -2.0733  -2.0733  -2.0334  -2.0334  -1.9961  -1.9961
    -0.0308  -0.0308   0.0352   0.0352   0.0919   0.0919   0.1412   0.1412
     0.2854   0.2854   0.4902   0.4902   3.4092   3.4092   6.6809   6.6809
     9.2617   9.2617  11.4387  11.4387  12.5045  12.5046  14.9679  14.9679
    16.4032  16.4032

          k = 0.0000 0.4330 0.1567 (  1646 PWs)   bands (ev):

    -2.0890  -2.0890  -2.0740  -2.0740  -2.0328  -2.0328  -1.9969  -1.9969
    -0.0427  -0.0427   0.0411   0.0411   0.0774   0.0774   0.1559   0.1559
     0.2990   0.2990   0.4859   0.4859   3.6640   3.6640   6.1057   6.1057
     9.1512   9.1512  11.5264  11.5264  12.9793  12.9793  15.2803  15.2803
    17.0480  17.0482

          k = 0.0000 0.4330 0.2351 (  1643 PWs)   bands (ev):

    -2.0852  -2.0852  -2.0752  -2.0752  -2.0276  -2.0276  -2.0031  -2.0031
    -0.0336  -0.0336   0.0268   0.0268   0.0777   0.0777   0.1318   0.1318
     0.3557   0.3557   0.4613   0.4613   4.0867   4.0867   5.3692   5.3692
     9.4461   9.4461  10.7318  10.7318  14.4072  14.4072  15.8289  15.8290
    16.7893  16.7894

          k = 0.0000 0.4330-0.3134 (  1642 PWs)   bands (ev):

    -2.0804  -2.0804  -2.0804  -2.0804  -2.0150  -2.0150  -2.0150  -2.0150
    -0.0067  -0.0067  -0.0067  -0.0067   0.1005   0.1005   0.1005   0.1005
     0.4167   0.4167   0.4167   0.4167   4.6671   4.6671   4.6671   4.6671
    10.0038  10.0038  10.0038  10.0038  15.6742  15.6742  15.6742  15.6744
    16.9399  16.9399

          k = 0.0000-0.5774 0.0000 (  1630 PWs)   bands (ev):

    -2.0884  -2.0884  -2.0773  -2.0773  -2.0167  -2.0167  -2.0054  -2.0054
    -0.0370  -0.0370   0.0516   0.0516   0.0964   0.0964   0.1352   0.1352
     0.3282   0.3282   0.5440   0.5440   4.8746   4.8746   5.9130   5.9130
     9.8425   9.8425  10.7088  10.7088  12.0770  12.0770  14.3281  14.3281
    14.5564  14.5564

          k = 0.0000-0.5774 0.0784 (  1642 PWs)   bands (ev):

    -2.0883  -2.0883  -2.0808  -2.0808  -2.0271  -2.0271  -2.0018  -2.0018
    -0.0472  -0.0472   0.0517   0.0517   0.0809   0.0809   0.1571   0.1571
     0.3199   0.3199   0.5443   0.5443   4.9459   4.9459   5.9893   5.9893
     9.2561   9.2561  10.4624  10.4624  12.6380  12.6380  14.5716  14.5716
    14.9387  14.9387

          k = 0.0000-0.5774 0.1567 (  1644 PWs)   bands (ev):

    -2.0874  -2.0874  -2.0781  -2.0781  -2.0329  -2.0329  -2.0019  -2.0019
    -0.0585  -0.0585   0.0430   0.0430   0.0732   0.0732   0.1752   0.1752
     0.3358   0.3358   0.5376   0.5376   5.1604   5.1604   6.1704   6.1704
     8.4240   8.4240   9.7016   9.7016  13.7946  13.7946  15.0458  15.0458
    15.8955  15.8955

          k = 0.0000-0.5774 0.2351 (  1640 PWs)   bands (ev):

    -2.0873  -2.0873  -2.0774  -2.0774  -2.0262  -2.0262  -2.0086  -2.0086
    -0.0535  -0.0535   0.0116   0.0116   0.0919   0.0919   0.1526   0.1526
     0.3956   0.3956   0.5130   0.5130   5.5093   5.5093   6.2395   6.2395
     7.9724   7.9724   8.8739   8.8739  14.8474  14.8474  15.8615  15.8616
    16.4193  16.4194

          k = 0.0000-0.5774-0.3134 (  1656 PWs)   bands (ev):

    -2.0857  -2.0857  -2.0857  -2.0857  -2.0216  -2.0216  -2.0216  -2.0216
    -0.0304  -0.0304  -0.0304  -0.0304   0.1180   0.1180   0.1180   0.1180
     0.4590   0.4590   0.4590   0.4590   5.9382   5.9382   5.9382   5.9382
     8.2071   8.2071   8.2071   8.2071  15.6474  15.6474  15.6475  15.6475
    17.1089  17.1089

          k = 0.1250 0.2165 0.0000 (  1663 PWs)   bands (ev):

    -2.0941  -2.0941  -2.0643  -2.0643  -2.0570  -2.0570  -2.0011  -2.0011
    -0.0291  -0.0291   0.0379   0.0379   0.0685   0.0685   0.1277   0.1277
     0.2220   0.2220   0.3566   0.3566   1.5094   1.5094   6.1404   6.1404
     8.7428   8.7428  13.7123  13.7123  14.6029  14.6029  17.7266  17.7266
    18.9782  18.9782

          k = 0.1250 0.2165 0.0784 (  1660 PWs)   bands (ev):

    -2.0903  -2.0903  -2.0656  -2.0656  -2.0539  -2.0539  -2.0030  -2.0030
    -0.0351  -0.0351   0.0384   0.0384   0.0687   0.0687   0.1464   0.1464
     0.2224   0.2224   0.3480   0.3480   1.5972   1.5972   5.6033   5.6033
     9.4083   9.4083  13.8226  13.8226  14.6476  14.6476  17.2932  17.2932
    18.6393  18.6393

          k = 0.1250 0.2165 0.1567 (  1655 PWs)   bands (ev):

    -2.0870  -2.0870  -2.0673  -2.0673  -2.0478  -2.0478  -2.0054  -2.0054
    -0.0398  -0.0398   0.0267   0.0267   0.0762   0.0762   0.1822   0.1822
     0.2222   0.2222   0.3283   0.3283   1.8638   1.8638   4.6526   4.6526
    10.7272  10.7272  14.1588  14.1588  14.7057  14.7057  16.5526  16.5526
    17.8904  17.8905

          k = 0.1250 0.2165 0.2351 (  1653 PWs)   bands (ev):

    -2.0832  -2.0832  -2.0718  -2.0718  -2.0363  -2.0363  -2.0127  -2.0127
    -0.0362  -0.0362   0.0127   0.0127   0.0877   0.0877   0.2060   0.2060
     0.2220   0.2220   0.3044   0.3044   2.3136   2.3136   3.7314   3.7314
    12.1828  12.1828  14.4081  14.4081  14.7607  14.7607  16.1092  16.1092
    17.1255  17.1257

          k = 0.1250 0.2165-0.3134 (  1642 PWs)   bands (ev):

    -2.0779  -2.0779  -2.0740  -2.0740  -2.0211  -2.0211  -2.0204  -2.0204
    -0.0298  -0.0298   0.0069   0.0069   0.0953   0.0953   0.2102   0.2102
     0.2281   0.2281   0.2958   0.2958   2.9387   2.9387   2.9443   2.9443
    13.4665  13.4665  13.5396  13.5396  15.4648  15.4648  15.7327  15.7327
    16.8526  16.8526

          k = 0.1250 0.3608 0.0000 (  1646 PWs)   bands (ev):

    -2.0837  -2.0837  -2.0554  -2.0554  -2.0318  -2.0318  -1.9961  -1.9961
    -0.0376  -0.0376   0.0387   0.0387   0.0863   0.0863   0.1541   0.1541
     0.2893   0.2893   0.4009   0.4009   2.7302   2.7302   6.8000   6.8000
     9.9128   9.9128  11.1001  11.1001  12.8999  12.8999  15.3034  15.3034
    17.0158  17.0158

          k = 0.1250 0.3608 0.0784 (  1651 PWs)   bands (ev):

    -2.0836  -2.0836  -2.0583  -2.0583  -2.0323  -2.0323  -1.9983  -1.9983
    -0.0383  -0.0383   0.0207   0.0207   0.0975   0.0975   0.1686   0.1686
     0.2761   0.2761   0.4010   0.4010   2.8163   2.8163   6.4394   6.4394
    10.0447  10.0447  11.5286  11.5286  12.9120  12.9120  14.9054  14.9054
    17.0186  17.0187

          k = 0.1250 0.3608 0.1567 (  1651 PWs)   bands (ev):

    -2.0827  -2.0827  -2.0630  -2.0630  -2.0291  -2.0291  -1.9998  -1.9998
    -0.0370  -0.0370   0.0053   0.0053   0.0995   0.0995   0.1885   0.1885
     0.2681   0.2681   0.3992   0.3992   3.0760   3.0760   5.6718   5.6718
    10.3623  10.3623  12.3536  12.3536  12.9668  12.9668  14.5357  14.5357
    16.3607  16.3607

          k = 0.1250 0.3608 0.2351 (  1649 PWs)   bands (ev):

    -2.0807  -2.0807  -2.0673  -2.0673  -2.0227  -2.0227  -2.0028  -2.0028
    -0.0286  -0.0286  -0.0003  -0.0003   0.0932   0.0932   0.1704   0.1704
     0.3015   0.3015   0.3881   0.3881   3.5096   3.5096   4.8477   4.8477
    10.8283  10.8283  12.0673  12.0673  13.8178  13.8178  14.8683  14.8683
    15.7107  15.7107

          k = 0.1250 0.3608-0.3134 (  1654 PWs)   bands (ev):

    -2.0757  -2.0757  -2.0743  -2.0743  -2.0194  -2.0194  -2.0087  -2.0087
    -0.0134  -0.0134  -0.0122  -0.0122   0.0884   0.0884   0.1550   0.1550
     0.3267   0.3267   0.3738   0.3738   4.1042   4.1042   4.1117   4.1117
    11.3865  11.3865  11.4600  11.4600  14.4157  14.4157  14.7928  14.7928
    16.3475  16.3482

          k = 0.1250 0.5052 0.0000 (  1647 PWs)   bands (ev):

    -2.0780  -2.0780  -2.0637  -2.0637  -2.0206  -2.0206  -2.0063  -2.0063
    -0.0363  -0.0363   0.0352   0.0352   0.0934   0.0934   0.1635   0.1635
     0.3093   0.3093   0.4893   0.4893   4.4191   4.4191   6.5795   6.5795
     9.6685   9.6685  11.1752  11.1752  12.1002  12.1002  13.4775  13.4775
    14.8892  14.8892

          k = 0.1250 0.5052 0.0784 (  1644 PWs)   bands (ev):

    -2.0771  -2.0771  -2.0632  -2.0632  -2.0242  -2.0242  -2.0012  -2.0012
    -0.0397  -0.0397   0.0276   0.0276   0.0910   0.0910   0.1903   0.1903
     0.2964   0.2964   0.4905   0.4905   4.5002   4.5002   6.5914   6.5914
     9.2260   9.2260  11.0984  11.0984  12.3335  12.3335  13.5963  13.5963
    15.3774  15.3774

          k = 0.1250 0.5052 0.1567 (  1642 PWs)   bands (ev):

    -2.0796  -2.0796  -2.0641  -2.0641  -2.0248  -2.0248  -1.9956  -1.9956
    -0.0531  -0.0531   0.0283   0.0283   0.0842   0.0842   0.2119   0.2119
     0.2980   0.2980   0.4851   0.4851   4.7417   4.7417   6.5271   6.5271
     8.6648   8.6648  10.4746  10.4746  12.8095  12.8095  14.4347  14.4347
    15.5461  15.5462

          k = 0.1250 0.5052 0.2351 (  1650 PWs)   bands (ev):

    -2.0817  -2.0817  -2.0711  -2.0711  -2.0220  -2.0220  -1.9971  -1.9971
    -0.0611  -0.0611   0.0207   0.0207   0.0947   0.0947   0.1731   0.1731
     0.3524   0.3524   0.4623   0.4623   5.1338   5.1338   6.1816   6.1816
     8.5992   8.5992   9.6941   9.6941  13.3242  13.3242  14.6753  14.6753
    15.9732  15.9732

          k = 0.1250 0.5052-0.3134 (  1644 PWs)   bands (ev):

    -2.0787  -2.0787  -2.0743  -2.0743  -2.0184  -2.0184  -1.9961  -1.9961
    -0.0594  -0.0594   0.0105   0.0105   0.1289   0.1289   0.1333   0.1333
     0.3975   0.3975   0.4363   0.4363   5.6411   5.6411   5.6504   5.6504
     8.9942   8.9942   9.0371   9.0371  13.8353  13.8353  14.1018  14.1018
    17.1246  17.1247

          k = 0.2500 0.4330 0.0000 (  1655 PWs)   bands (ev):

    -2.0716  -2.0716  -2.0371  -2.0371  -2.0248  -2.0248  -2.0064  -2.0064
    -0.0530  -0.0530   0.0544   0.0544   0.0973   0.0973   0.1622   0.1622
     0.3510   0.3510   0.3891   0.3891   4.1539   4.1539   7.0308   7.0308
    10.1759  10.1759  10.7230  10.7231  11.7791  11.7791  13.9922  13.9922
    14.9532  14.9533

          k = 0.2500 0.4330 0.0784 (  1652 PWs)   bands (ev):

    -2.0725  -2.0725  -2.0404  -2.0404  -2.0231  -2.0231  -2.0009  -2.0009
    -0.0447  -0.0447   0.0186   0.0186   0.1289   0.1289   0.1667   0.1667
     0.3345   0.3345   0.3950   0.3950   4.2379   4.2379   6.9358   6.9358
     9.9508   9.9508  10.5333  10.5333  12.5040  12.5040  13.4311  13.4311
    14.7575  14.7575

          k = 0.2500 0.4330 0.1567 (  1646 PWs)   bands (ev):

    -2.0738  -2.0738  -2.0483  -2.0483  -2.0200  -2.0200  -1.9902  -1.9902
    -0.0475  -0.0475   0.0064   0.0064   0.1318   0.1318   0.1912   0.1912
     0.3136   0.3136   0.3991   0.3991   4.4877   4.4877   6.6005   6.6005
     9.6372   9.6372  10.5972  10.5972  12.4867  12.4867  13.4885  13.4885
    14.5806  14.5806

          k = 0.2500 0.4330 0.2351 (  1647 PWs)   bands (ev):

    -2.0756  -2.0756  -2.0584  -2.0584  -2.0141  -2.0141  -1.9848  -1.9848
    -0.0624  -0.0624   0.0180   0.0180   0.1291   0.1291   0.1910   0.1910
     0.3099   0.3099   0.3997   0.3997   4.8942   4.8942   6.0454   6.0454
     9.7209   9.7209  10.5229  10.5229  12.1131  12.1131  13.0385  13.0385
    15.8229  15.8229

          k = 0.2500 0.4330-0.3134 (  1638 PWs)   bands (ev):

    -2.0704  -2.0704  -2.0667  -2.0667  -2.0085  -2.0085  -1.9790  -1.9790
    -0.0664  -0.0664   0.0204   0.0204   0.1414   0.1414   0.1788   0.1788
     0.3152   0.3152   0.4013   0.4013   5.4286   5.4286   5.4403   5.4403
    10.0301  10.0301  10.1903  10.1903  12.2403  12.2403  12.5998  12.5998
    17.1697  17.1703

          k = 0.2500 0.5774 0.0000 (  1654 PWs)   bands (ev):

    -2.0713  -2.0713  -2.0395  -2.0395  -2.0162  -2.0162  -1.9976  -1.9976
    -0.0372  -0.0372   0.0482   0.0482   0.0833   0.0833   0.2008   0.2008
     0.3227   0.3227   0.4148   0.4148   5.5257   5.5257   6.2827   6.2827
     9.4439   9.4439  11.4255  11.4255  12.3881  12.3881  13.1636  13.1636
    13.9015  13.9015

          k = 0.2500 0.5774 0.0784 (  1644 PWs)   bands (ev):

    -2.0670  -2.0670  -2.0400  -2.0400  -2.0187  -2.0187  -1.9889  -1.9889
    -0.0280  -0.0280   0.0164   0.0164   0.1128   0.1128   0.2082   0.2082
     0.3143   0.3143   0.4135   0.4135   5.5974   5.5974   6.3395   6.3395
     9.4500   9.4500  10.9258  10.9258  11.7709  11.7709  13.7203  13.7203
    14.0440  14.0440

          k = 0.2500 0.5774 0.1567 (  1649 PWs)   bands (ev):

    -2.0686  -2.0686  -2.0516  -2.0516  -2.0181  -2.0181  -1.9792  -1.9792
    -0.0554  -0.0554   0.0415   0.0415   0.1049   0.1049   0.2291   0.2291
     0.2948   0.2948   0.4045   0.4045   5.8036   5.8036   6.4735   6.4735
     9.3251   9.3251  10.2645  10.2645  11.0834  11.0834  13.0665  13.0665
    15.4272  15.4274

          k = 0.2500 0.5774 0.2351 (  1644 PWs)   bands (ev):

    -2.0711  -2.0711  -2.0618  -2.0618  -2.0090  -2.0090  -1.9708  -1.9708
    -0.0793  -0.0793   0.0704   0.0704   0.1074   0.1074   0.2200   0.2200
     0.2920   0.2920   0.3994   0.3994   6.1095   6.1095   6.5566   6.5566
     9.0625   9.0625   9.6536   9.6536  11.0700  11.0700  12.3016  12.3016
    16.8908  16.8908

          k = 0.2500 0.5774-0.3134 (  1632 PWs)   bands (ev):

    -2.0691  -2.0691  -2.0652  -2.0652  -2.0015  -2.0015  -1.9659  -1.9659
    -0.0846  -0.0846   0.0554   0.0554   0.1700   0.1700   0.1755   0.1755
     0.2992   0.2992   0.3999   0.3999   6.4065   6.4065   6.4323   6.4323
     9.0594   9.0594   9.2525   9.2525  11.4033  11.4033  11.7627  11.7627
    17.8089  17.8092

     the Fermi energy is    10.4917 ev

!    total energy              =    -242.12772581 Ry
     estimated scf accuracy    <          5.8E-09 Ry
     smearing contrib. (-TS)   =      -0.00010369 Ry
     internal energy E=F+TS    =    -242.12762213 Ry

     The total energy is F=E-TS. E is the sum of the following terms:
     one-electron contribution =     -38.33972255 Ry
     hartree contribution      =      40.68149860 Ry
     xc contribution           =     -75.59150119 Ry
     ewald contribution        =    -168.87789699 Ry

     convergence has been achieved in   6 iterations

     Writing all to output data dir ./pwscf.save/ :
     XML data file, charge density, pseudopotentials, collected wavefunctions

     init_run     :      9.86s CPU      5.10s WALL (       1 calls)
     electrons    :    269.03s CPU    135.71s WALL (       1 calls)

     Called by init_run:
     wfcinit      :      9.56s CPU      4.84s WALL (       1 calls)
     potinit      :      0.06s CPU      0.04s WALL (       1 calls)
     hinit0       :      0.21s CPU      0.18s WALL (       1 calls)

     Called by electrons:
     c_bands      :    259.14s CPU    130.64s WALL (       7 calls)
     sum_band     :      9.72s CPU      4.96s WALL (       7 calls)
     v_of_rho     :      0.09s CPU      0.05s WALL (       7 calls)
     mix_rho      :      0.06s CPU      0.03s WALL (       7 calls)

     Called by c_bands:
     init_us_2    :      0.83s CPU      0.41s WALL (     750 calls)
     cegterg      :    249.86s CPU    125.97s WALL (     350 calls)

     Called by *egterg:
     cdiaghg      :      6.61s CPU      3.32s WALL (    1391 calls)
     h_psi        :    219.40s CPU    111.00s WALL (    1491 calls)
     g_psi        :      0.30s CPU      0.24s WALL (    1091 calls)

     Called by h_psi:
     h_psi:calbec :     25.61s CPU     12.98s WALL (    1491 calls)
     vloc_psi     :    185.81s CPU     93.96s WALL (    1491 calls)
                                        0.00s GPU  (    1491 calls)
     add_vuspsi   :      3.49s CPU      1.84s WALL (    1491 calls)

     General routines
     calbec       :     25.58s CPU     12.97s WALL (    1491 calls)
     fft          :      0.16s CPU      0.11s WALL (     110 calls)
     ffts         :      0.01s CPU      0.01s WALL (      28 calls)
     fftw         :    173.97s CPU     88.39s WALL (  161232 calls)

     Parallel routines

     PWSCF        :   4m39.26s CPU   2m21.42s WALL


   This run was terminated on:  22:30:55  29Aug2026            

=------------------------------------------------------------------------------=
   JOB DONE.
=------------------------------------------------------------------------------=
